LAMMPS (2 Aug 2023 - Update 1)
  using 13 OpenMP thread(s) per MPI task
Loaded 1 plugins from /opt/pub/toolkits/anaconda3/envs/deepmd-2.2.7-gpu/lib/deepmd_lmp
Lattice spacing in x,y,z = 3.57371 3.57371 3.57371
Created orthogonal box = (0 0 0) to (25.016 25.016 200)
  1 by 1 by 1 MPI processor grid
Created 392 atoms
  using lattice units in orthogonal box = (0 0 0) to (25.016 25.016 200)
  create_atoms CPU = 0.001 seconds
392 atoms in group fixed_atoms
Created 1274 atoms
  using lattice units in orthogonal box = (0 0 0) to (25.016 25.016 200)
  create_atoms CPU = 0.000 seconds
1274 atoms in group bath_atoms
Created 1568 atoms
  using lattice units in orthogonal box = (0 0 0) to (25.016 25.016 200)
  create_atoms CPU = 0.000 seconds
dynamic group free_atoms defined
Summary of lammps deepmd module ...
  >>> Info of deepmd-kit:
  installed to:       /opt/gengzi/pub/toolkits/conda/envs/deepmd-2.2.7-gpu
  source:             v2.2.7
  source branch:       HEAD
  source commit:      839f4fe7
  source commit at:   2023-10-27 21:10:24 +0800
  surpport model ver.:1.1 
  build variant:      cuda
  build with tf inc:  /opt/gengzi/pub/toolkits/conda/envs/deepmd-2.2.7-gpu/include;/opt/gengzi/pub/toolkits/conda/envs/deepmd-2.2.7-gpu/include
  build with tf lib:  /opt/gengzi/pub/toolkits/conda/envs/deepmd-2.2.7-gpu/lib/libtensorflow_cc.so
  set tf intra_op_parallelism_threads: 0
  set tf inter_op_parallelism_threads: 0
  >>> Info of lammps module:
  use deepmd-kit at:  /opt/gengzi/pub/toolkits/conda/envs/deepmd-2.2.7-gpuINVALID_ARGUMENT: Tensor spin_attr/ntypes_spin:0, specified in either feed_devices or fetch_devices was not found in the Graph
  >>> Info of model(s):
  using   1 model(s): compress.pb 
  rcut in model:      6
  ntypes in model:    2

CITE-CITE-CITE-CITE-CITE-CITE-CITE-CITE-CITE-CITE-CITE-CITE-CITE

Your simulation uses code contributions which should be cited:
- USER-DEEPMD package:
The log file lists these citations in BibTeX format.

CITE-CITE-CITE-CITE-CITE-CITE-CITE-CITE-CITE-CITE-CITE-CITE-CITE

Generated 0 of 10 mixed pair_coeff terms from geometric mixing rule
Neighbor list info ...
  update: every = 1 steps, delay = 0 steps, check = yes
  max neighbors/atom: 2000, page size: 100000
  master list distance cutoff = 7
  ghost atom cutoff = 7
  binsize = 3.5, bins = 8 8 58
  1 neighbor lists, perpetual/occasional/extra = 1 0 0
  (1) pair deepmd, perpetual
      attributes: full, newton on
      pair build: full/bin/atomonly
      stencil: full/bin/3d
      bin: standard
Setting up cg style minimization ...
  Unit style    : metal
  Current step  : 0
Per MPI rank memory allocation (min/avg/max) = 18.08 | 18.08 | 18.08 Mbytes
   Step        Atoms         Temp          TotEng         Press          Volume    
         0        3234   0             -388924.61     -47690.281      125160.05    
        16        3234   0             -389075.33     -6531.3694      125160.05    
Loop time of 0.433146 on 13 procs for 16 steps with 3234 atoms

103.9% CPU use with 1 MPI tasks x 13 OpenMP threads

Minimization stats:
  Stopping criterion = energy tolerance
  Energy initial, next-to-last, final = 
     -388924.605656175  -389075.327445326  -389075.329774889
  Force two-norm initial, final = 90.147474 0.17599632
  Force max component initial, final = 5.6858645 0.011336361
  Final line search alpha, max atom move = 1 0.011336361
  Iterations, force evaluations = 16 31

MPI task timing breakdown:
Section |  min time  |  avg time  |  max time  |%varavg| %total
---------------------------------------------------------------
Pair    | 0.42626    | 0.42626    | 0.42626    |   0.0 | 98.41
Neigh   | 0          | 0          | 0          |   0.0 |  0.00
Comm    | 0.00068543 | 0.00068543 | 0.00068543 |   0.0 |  0.16
Output  | 0          | 0          | 0          |   0.0 |  0.00
Modify  | 0          | 0          | 0          |   0.0 |  0.00
Other   |            | 0.006198   |            |       |  1.43

Nlocal:           3234 ave        3234 max        3234 min
Histogram: 1 0 0 0 0 0 0 0 0 0
Nghost:           4387 ave        4387 max        4387 min
Histogram: 1 0 0 0 0 0 0 0 0 0
Neighs:              0 ave           0 max           0 min
Histogram: 1 0 0 0 0 0 0 0 0 0
FullNghs:       804188 ave      804188 max      804188 min
Histogram: 1 0 0 0 0 0 0 0 0 0

Total # of neighbors = 804188
Ave neighs/atom = 248.66667
Neighbor list builds = 0
Dangerous builds = 0
dynamic group C4_atoms defined
dynamic group B_atoms defined
392 atoms in group fixed_atoms02
Generated 0 of 10 mixed pair_coeff terms from geometric mixing rule
Setting up Verlet run ...
  Unit style    : metal
  Current step  : 16
  Time step     : 0.0005
Per MPI rank memory allocation (min/avg/max) = 18.33 | 18.33 | 18.33 Mbytes
   Step        Atoms      c_t_fixed       c_t_bath       c_t_free      v_C4_atoms     v_B_atoms        TotEng         Press          Volume    
        16        3234   0              291.12364      307.00137      0              0             -388965.17     -5591.224       125160.05    
      1000        3234   0              281.46683      196.32657      0              0             -388902.13     -2381.0252      125160.05    
      2000        3234   0              290.92761      224.46724      0              0             -388884.75     -2223.2188      125160.05    
      3000        3234   0              300.73454      255.41736      0              0             -388875.04     -2817.8108      125160.05    
      4000        3234   0              304.11815      278.16997      0              0             -388867.69     -3555.0222      125160.05    
      5000        3234   0              293.60646      271.69949      0              0             -388865.29     -4721.3574      125160.05    
      6000        3234   0              294.02802      284.43942      0              0             -388863.18     -5945.813       125160.05    
      7000        3234   0              294.16811      275.56476      0              0             -388862.49     -6889.0995      125160.05    
      8000        3234   0              292.5266       294.00648      0              0             -388860.2      -8309.4719      125160.05    
      9000        3234   0              291.83916      294.03975      0              0             -388859.52     -8263.7206      125160.05    
     10000        3234   0              299.45426      296.11746      0              0             -388857.48     -8215.4457      125160.05    
     10016        3234   0              299.31515      290.35343      0              0             -388857.46     -8087.2441      125160.05    
Loop time of 134.255 on 13 procs for 10000 steps with 3234 atoms

Performance: 3.218 ns/day, 7.459 hours/ns, 74.485 timesteps/s, 240.885 katom-step/s
104.3% CPU use with 1 MPI tasks x 13 OpenMP threads

MPI task timing breakdown:
Section |  min time  |  avg time  |  max time  |%varavg| %total
---------------------------------------------------------------
Pair    | 131.78     | 131.78     | 131.78     |   0.0 | 98.16
Neigh   | 0.030074   | 0.030074   | 0.030074   |   0.0 |  0.02
Comm    | 0.18773    | 0.18773    | 0.18773    |   0.0 |  0.14
Output  | 0.042675   | 0.042675   | 0.042675   |   0.0 |  0.03
Modify  | 2.0931     | 2.0931     | 2.0931     |   0.0 |  1.56
Other   |            | 0.1182     |            |       |  0.09

Nlocal:           3234 ave        3234 max        3234 min
Histogram: 1 0 0 0 0 0 0 0 0 0
Nghost:           4388 ave        4388 max        4388 min
Histogram: 1 0 0 0 0 0 0 0 0 0
Neighs:              0 ave           0 max           0 min
Histogram: 1 0 0 0 0 0 0 0 0 0
FullNghs:       804176 ave      804176 max      804176 min
Histogram: 1 0 0 0 0 0 0 0 0 0

Total # of neighbors = 804176
Ave neighs/atom = 248.66296
Neighbor list builds = 2
Dangerous builds = 0
Generated 0 of 10 mixed pair_coeff terms from geometric mixing rule
Setting up Verlet run ...
  Unit style    : metal
  Current step  : 10016
  Time step     : 0.0005
Per MPI rank memory allocation (min/avg/max) = 18.33 | 18.33 | 18.33 Mbytes
   Step        Atoms      c_t_fixed       c_t_bath       c_t_free      v_C4_atoms     v_B_atoms        TotEng         Press          Volume    
     10016        3234   0              299.31515      290.35343      0              0             -388857.46     -8087.2441      125160.05    
     11000        3236   0              299.85715      300.11488      1              1             -388999.19     -7694.5463      125160.05    
     12000        3236   0              312.40764      489.71698      1              1             -389006.98     -9982.7845      125160.05    
     13000        3236   0              320.84326      453.38591      1              1             -389034.17     -8707.881       125160.05    
     14000        3236   0              314.96022      417.47334      1              1             -389057.27     -8442.869       125160.05    
     15000        3236   0              308.7452       389.56593      1              1             -389073.41     -7095.6102      125160.05    
     16000        3236   0              301.4102       379.40623      1              1             -389085.54     -5973.8653      125160.05    
     17000        3236   0              296.81646      349.32039      1              1             -389095.67     -4800.8321      125160.05    
     18000        3236   0              305.28472      355.28926      1              1             -389100.46     -3432.889       125160.05    
     19000        3236   0              304.27146      346.53086      1              1             -389105.23     -2461.4531      125160.05    
     20000        3236   0              301.12732      339.04389      1              1             -389109.32     -1581.7046      125160.05    
     21000        3236   0              302.14971      322.76422      1              1             -389113.07     -838.02988      125160.05    
     22000        3236   0              306.34702      322.36529      1              1             -389119.39     -545.98259      125160.05    
     23000        3236   0              294.20941      311.39947      1              1             -389120.97     -166.78207      125160.05    
     24000        3236   0              309.6892       316.70736      1              1             -389121.51     -684.45733      125160.05    
     25000        3236   0              298.23279      315.09511      1              1             -389125.59     -1482.9531      125160.05    
     26000        3236   0              304.5878       325.45212      1              1             -389125.23     -2432.8098      125160.05    
     27000        3236   0              304.18268      300.25099      1              1             -389126.4      -3841.2734      125160.05    
     28000        3236   0              302.65373      298.18333      1              1             -389128.64     -4729.056       125160.05    
     29000        3236   0              302.27491      313.95105      1              1             -389127.23     -5916.5696      125160.05    
     30000        3236   0              298.65919      307.13911      1              1             -389126.5      -6902.4881      125160.05    
     31000        3237   0              303.31124      306.33485      2              1             -389200.27     -7444.3568      125160.05    
     32000        3237   0              298.39482      410.56254      2              1             -389203.15     -8914.8535      125160.05    
     33000        3237   0              305.29248      383.26253      2              1             -389218.59     -9265.3955      125160.05    
     34000        3237   0              310.32771      375.81807      2              1             -389228.7      -9041.333       125160.05    
     35000        3237   0              301.62799      354.05718      2              1             -389234.89     -8648.5897      125160.05    
     36000        3237   0              298.94333      333.18652      2              1             -389244.95     -7601.2032      125160.05    
     37000        3237   0              298.1715       331.1547       2              1             -389249.2      -6462.4976      125160.05    
     38000        3237   0              297.14634      322.88504      2              1             -389253.5      -5415.2109      125160.05    
     39000        3237   0              312.36427      308.46323      2              1             -389257.26     -3844.572       125160.05    
     40000        3237   0              297.41373      307.87984      2              1             -389260.04     -1868.8976      125160.05    
     41000        3237   0              294.28353      315.44976      2              1             -389260.59     -995.18506      125160.05    
     42000        3237   0              299.50285      313.25372      2              1             -389260.16      44.415347      125160.05    
     43000        3237   0              298.98749      318.59401      2              1             -389259.8       27.898642      125160.05    
     44000        3237   0              298.6472       316.60245      2              1             -389259.13      467.21037      125160.05    
     45000        3237   0              298.2367       326.93328      2              1             -389259.03      13.456785      125160.05    
     46000        3237   0              298.89184      309.75175      2              1             -389262.24     -290.59581      125160.05    
     47000        3237   0              294.17994      303.61629      2              1             -389265.8      -1589.019       125160.05    
     48000        3237   0              303.32004      296.65813      2              1             -389266.11     -2526.3451      125160.05    
     49000        3237   0              301.60073      306.61673      2              1             -389262.14     -3982.7315      125160.05    
     50000        3237   0              294.11347      303.91354      2              1             -389263.69     -5126.9483      125160.05    
     51000        3238   0              295.29505      303.20118      3              1             -389336.23     -6171.0725      125160.05    
     52000        3238   0              316.60258      398.55001      3              1             -389338.8      -9219.3924      125160.05    
     53000        3238   0              292.61695      368.05669      3              1             -389350.92     -9760.0119      125160.05    
     54000        3238   0              301.7939       341.96091      3              1             -389360.81     -10014.248      125160.05    
     55000        3238   0              307.95993      334.62382      3              1             -389366.73     -9955.0843      125160.05    
     56000        3238   0              309.09646      327.21409      3              1             -389373.39     -9708.0139      125160.05    
     57000        3238   0              298.52864      315.02589      3              1             -389375.51     -9072.0672      125160.05    
     58000        3238   0              301.28208      324.34382      3              1             -389378.79     -7374.5944      125160.05    
     59000        3238   0              301.50482      313.43024      3              1             -389380.62     -6138.7759      125160.05    
     60000        3238   0              304.71991      318.09532      3              1             -389383.37     -4948.3844      125160.05    
     61000        3238   0              305.34243      312.59903      3              1             -389381.94     -3593.7519      125160.05    
     62000        3238   0              295.55217      318.25321      3              1             -389382.28     -1975.6488      125160.05    
     63000        3238   0              298.99163      317.52792      3              1             -389384.53     -1099.5638      125160.05    
     64000        3238   0              301.00811      311.28531      3              1             -389385.77     -420.03009      125160.05    
     65000        3238   0              298.37454      314.34112      3              1             -389385.5       178.09012      125160.05    
     66000        3238   0              303.57772      307.19254      3              1             -389386.67      17.369771      125160.05    
     67000        3238   0              297.36042      313.49289      3              1             -389387.3      -252.7672       125160.05    
     68000        3238   0              302.30617      299.81037      3              1             -389388.72     -643.1141       125160.05    
     69000        3238   0              299.15547      304.84266      3              1             -389391.44     -1653.6482      125160.05    
     70000        3238   0              291.66195      305.59806      3              1             -389390.9      -2631.0472      125160.05    
     71000        3239   0              299.33225      296.7398       4              1             -389465.15     -3712.7982      125160.05    
     72000        3239   0              301.43225      383.89037      4              1             -389468.3      -6469.2024      125160.05    
     73000        3239   0              299.75279      362.23617      4              1             -389479.01     -7610.3585      125160.05    
     74000        3239   0              300.44523      345.72549      4              1             -389486.05     -9030.6604      125160.05    
     75000        3239   0              303.62404      350.42608      4              1             -389489.06     -9517.0522      125160.05    
     76000        3239   0              312.01016      344.76127      4              1             -389493.05     -9575.7917      125160.05    
     77000        3239   0              302.17641      332.93951      4              1             -389496.39     -8433.0105      125160.05    
     78000        3239   0              301.52329      331.58342      4              1             -389495.98     -7623.0499      125160.05    
     79000        3239   0              302.65255      329.39772      4              1             -389498.61     -6842.5186      125160.05    
     80000        3239   0              302.75972      326.28162      4              1             -389501.1      -6348.6237      125160.05    
     81000        3239   0              306.44364      325.42152      4              1             -389501.5      -5414.6125      125160.05    
     82000        3239   0              303.49319      321.72988      4              1             -389502.52     -4517.8443      125160.05    
     83000        3239   0              295.37428      315.50894      4              1             -389504.43     -3605.9652      125160.05    
     84000        3239   0              304.91627      310.45785      4              1             -389505.26     -2421.986       125160.05    
     85000        3239   0              308.20847      307.99092      4              1             -389507.56     -1653.0175      125160.05    
     86000        3239   0              308.64195      308.15716      4              1             -389508.42     -1027.9215      125160.05    
     87000        3239   0              301.31679      303.41569      4              1             -389510.41     -727.12389      125160.05    
     88000        3239   0              304.13165      301.72107      4              1             -389510.35     -833.41048      125160.05    
     89000        3239   0              304.64763      301.76908      4              1             -389512.01     -387.5278       125160.05    
     90000        3239   0              307.15655      309.03981      4              1             -389510.14     -1106.9185      125160.05    
     91000        3240   0              298.32357      309.65201      5              1             -389582.64     -1335.6936      125160.05    
     92000        3240   0              314.62457      397.10764      5              1             -389586.47     -3638.3341      125160.05    
     93000        3240   0              311.24966      368.77985      5              1             -389600        -4638.8094      125160.05    
     94000        3240   0              309.45105      351.56457      5              1             -389608.57     -5533.2308      125160.05    
     95000        3240   0              305.70379      341.57683      5              1             -389613.79     -5817.9361      125160.05    
     96000        3240   0              299.92943      342.18579      5              1             -389618.09     -5994.8027      125160.05    
     97000        3240   0              291.91927      324.56643      5              1             -389619.94     -5719.7609      125160.05    
     98000        3240   0              296.0317       319.0359       5              1             -389624.38     -6167.0353      125160.05    
     99000        3240   0              299.18864      308.23967      5              1             -389626.71     -5756.0684      125160.05    
    100000        3240   0              300.8874       319.68875      5              1             -389627.21     -6654.4071      125160.05    
    101000        3240   0              308.9237       310.93426      5              1             -389627.14     -6395.0331      125160.05    
    102000        3240   0              310.92665      316.17258      5              1             -389628.22     -5762.9637      125160.05    
    103000        3240   0              302.72986      308.38117      5              1             -389629.08     -5112.6929      125160.05    
    104000        3240   0              305.30861      316.31788      5              1             -389631.31     -4514.9838      125160.05    
    105000        3240   0              301.59044      299.20393      5              1             -389633.29     -3438.6493      125160.05    
    106000        3240   0              302.43798      302.12896      5              1             -389634.82     -3528.0046      125160.05    
    107000        3240   0              296.04548      306.5892       5              1             -389636.04     -2195.5231      125160.05    
    108000        3240   0              300.18766      306.22062      5              1             -389635.64     -1831.4138      125160.05    
    109000        3240   0              305.07668      293.7437       5              1             -389638.08     -1850.6164      125160.05    
    110000        3240   0              307.09795      294.12302      5              1             -389637.04     -1855.0003      125160.05    
    111000        3241   0              307.65685      295.79922      6              1             -389710.63     -2001.6584      125160.05    
    112000        3241   0              316.82278      389.41503      6              1             -389714.41     -3695.1609      125160.05    
    113000        3241   0              302.83719      357.91405      6              1             -389727.03     -4758.9129      125160.05    
    114000        3241   0              303.22515      342.44447      6              1             -389733.77     -4228.6033      125160.05    
    115000        3241   0              300.77431      325.73899      6              1             -389740.08     -3839.7183      125160.05    
    116000        3241   0              305.92008      317.10533      6              1             -389742.46     -4577.3042      125160.05    
    117000        3241   0              292.82734      312.78905      6              1             -389746.17     -4711.8401      125160.05    
    118000        3241   0              308.82281      317.56704      6              1             -389746.13     -5234.258       125160.05    
    119000        3241   0              296.75819      316.75944      6              1             -389746.53     -5057.0248      125160.05    
    120000        3241   0              292.59544      322.21307      6              1             -389748.08     -4184.1951      125160.05    
    121000        3241   0              303.61537      317.73132      6              1             -389747.98     -4649.1486      125160.05    
    122000        3241   0              297.42316      314.03932      6              1             -389749.05     -5041.4097      125160.05    
    123000        3241   0              306.68624      320.66267      6              1             -389748.28     -4877.1626      125160.05    
    124000        3241   0              304.00692      305.37283      6              1             -389749.44     -4338.9436      125160.05    
    125000        3241   0              304.35288      312.16724      6              1             -389750.92     -3606.3399      125160.05    
    126000        3241   0              307.50317      299.30962      6              1             -389750.91     -2891.863       125160.05    
    127000        3241   0              301.72015      312.03286      6              1             -389751.5      -3935.9403      125160.05    
    128000        3241   0              299.93539      301.15697      6              1             -389754.04     -4099.1055      125160.05    
    129000        3241   0              304.93972      300.45829      6              1             -389755.67     -3538.6312      125160.05    
    130000        3241   0              298.9434       303.36369      6              1             -389756.31     -3557.5955      125160.05    
    131000        3242   0              297.56143      290.08538      7              1             -389830.53     -3108.8814      125160.05    
    132000        3242   0              315.97489      365.72318      7              1             -389835.06     -4821.7053      125160.05    
    133000        3242   0              311.07616      348.80538      7              1             -389849.05     -4553.1548      125160.05    
    134000        3242   0              306.79832      336.06541      7              1             -389857.24     -3900.5739      125160.05    
    135000        3242   0              296.00757      329.14479      7              1             -389859.74     -3288.8853      125160.05    
    136000        3242   0              301.42896      326.29173      7              1             -389863.49     -3647.9952      125160.05    
    137000        3242   0              292.2551       319.36613      7              1             -389863.76     -3829.8433      125160.05    
    138000        3242   0              296.95527      320.90344      7              1             -389866.33     -3488.9264      125160.05    
    139000        3242   0              301.82344      319.78619      7              1             -389867.34     -3132.588       125160.05    
    140000        3242   0              294.65293      308.78169      7              1             -389869.43     -2763.5945      125160.05    
    141000        3242   0              294.96611      301.93527      7              1             -389870.84     -3236.2829      125160.05    
    142000        3242   0              302.99454      302.12229      7              1             -389871.42     -2895.7805      125160.05    
    143000        3242   0              300.02073      311.30184      7              1             -389871.38     -2287.1847      125160.05    
    144000        3242   0              298.18392      305.83449      7              1             -389870.77     -3087.6797      125160.05    
    145000        3242   0              292.83143      301.94444      7              1             -389871.66     -3226.0436      125160.05    
    146000        3242   0              308.30159      304.18934      7              1             -389871.67     -2581.4143      125160.05    
    147000        3242   0              294.99605      299.09844      7              1             -389873.02     -2583.1744      125160.05    
    148000        3242   0              299.00348      299.59963      7              1             -389873.53     -3639.1395      125160.05    
    149000        3242   0              302.00322      301.40764      7              1             -389871.82     -4066.7274      125160.05    
    150000        3242   0              300.34895      295.38942      7              1             -389874.65     -3820.9002      125160.05    
    151000        3243   0              303.03214      299.49339      8              1             -389948.48     -3330.0855      125160.05    
    152000        3243   0              307.55996      367.54814      8              1             -389951.39     -5360.8873      125160.05    
    153000        3243   0              313.65448      370.90832      8              1             -389959.7      -5807.6673      125160.05    
    154000        3243   0              301.34109      352.56458      8              1             -389970.04     -5498.2308      125160.05    
    155000        3243   0              300.95515      336.46258      8              1             -389977.82     -5740.6219      125160.05    
    156000        3243   0              290.87082      333.21618      8              1             -389981.67     -5707.0987      125160.05    
    157000        3243   0              303.11254      329.53352      8              1             -389983.02     -4924.8426      125160.05    
    158000        3243   0              304.06752      328.98167      8              1             -389984.5      -5268.2956      125160.05    
    159000        3243   0              307.99189      312.10442      8              1             -389988.09     -5106.8886      125160.05    
    160000        3243   0              303.77471      318.66423      8              1             -389991.33     -4107.0185      125160.05    
    161000        3243   0              296.83343      298.88711      8              1             -389993.53     -4082.2591      125160.05    
    162000        3243   0              291.6698       307.03389      8              1             -389994.2      -3855.3516      125160.05    
    163000        3243   0              297.70406      308.14443      8              1             -389993.37     -4529.4732      125160.05    
    164000        3243   0              292.93012      306.98267      8              1             -389994.32     -3616.1639      125160.05    
    165000        3243   0              307.041        311.99941      8              1             -389993.45     -3248.354       125160.05    
    166000        3243   0              306.72303      306.36864      8              1             -389994.73     -2988.898       125160.05    
    167000        3243   0              301.82842      310.4089       8              1             -389994.32     -2700.1485      125160.05    
    168000        3243   0              301.28704      306.6528       8              1             -389996.1      -3299.2773      125160.05    
    169000        3243   0              298.62452      296.99779      8              1             -389998.85     -2854.3401      125160.05    
    170000        3243   0              303.85678      307.21235      8              1             -389995.4      -3017.7311      125160.05    
    171000        3244   0              295.68468      304.55963      9              1             -390070.71     -1796.7173      125160.05    
    172000        3244   0              308.47382      381.90531      9              1             -390073.15     -3954.0887      125160.05    
    173000        3244   0              305.55051      365.58884      9              1             -390085.18     -4281.9778      125160.05    
    174000        3244   0              300.73438      350.81136      9              1             -390093.7      -3473.563       125160.05    
    175000        3244   0              300.80942      342.67558      9              1             -390097.62     -4191.5633      125160.05    
    176000        3244   0              295.31964      336.68935      9              1             -390102.95     -4094.355       125160.05    
    177000        3244   0              299.01057      332.68437      9              1             -390103.76     -4572.1409      125160.05    
    178000        3244   0              309.79829      318.24197      9              1             -390107.94     -4297.4748      125160.05    
    179000        3244   0              295.77693      329.09933      9              1             -390109.42     -4335.5297      125160.05    
    180000        3244   0              302.60512      327.69438      9              1             -390110.68     -4336.9184      125160.05    
    181000        3244   0              306.90415      324.49751      9              1             -390109.71     -3602.4083      125160.05    
    182000        3244   0              295.34938      318.53783      9              1             -390113.43     -4032.8657      125160.05    
    183000        3244   0              300.0125       317.40181      9              1             -390114.81     -4512.6591      125160.05    
    184000        3244   0              294.3296       322.54443      9              1             -390114.7      -4094.9465      125160.05    
    185000        3244   0              305.2114       303.95664      9              1             -390115.98     -3832.6564      125160.05    
    186000        3244   0              299.68073      308.50145      9              1             -390117        -3467.7688      125160.05    
    187000        3244   0              295.73894      307.69588      9              1             -390116.07     -4192.6302      125160.05    
    188000        3244   0              297.44818      307.60236      9              1             -390114.85     -3485.6256      125160.05    
    189000        3244   0              302.20063      298.3158       9              1             -390115.53     -4014.0135      125160.05    
    190000        3244   0              302.4117       309.80016      9              1             -390116.39     -3523.0601      125160.05    
    191000        3245   0              304.43042      306.66543      10             1             -390189.82     -3166.6804      125160.05    
    192000        3245   0              302.4763       390.52498      10             1             -390192.54     -5343.753       125160.05    
    193000        3245   0              311.92733      368.41738      10             1             -390203.9      -4868.3356      125160.05    
    194000        3245   0              306.26186      365.5065       10             1             -390210.81     -4529.6684      125160.05    
    195000        3245   0              304.07186      351.57623      10             1             -390216.86     -5087.7152      125160.05    
    196000        3245   0              306.16814      347.37929      10             1             -390221.04     -5298.7881      125160.05    
    197000        3245   0              299.15522      327.36371      10             1             -390224.68     -4865.3118      125160.05    
    198000        3245   0              308.16593      321.04835      10             1             -390227.3      -4294.1135      125160.05    
    199000        3245   0              301.04397      316.39378      10             1             -390232.87     -4481.5728      125160.05    
    200000        3245   0              314.04272      311.13592      10             1             -390232.13     -4253.7368      125160.05    
    201000        3245   0              290.19284      310.00671      10             1             -390234.36     -3706.09        125160.05    
    202000        3245   0              308.27177      308.80068      10             1             -390235.98     -3998.741       125160.05    
    203000        3245   0              306.41786      309.88706      10             1             -390235.99     -2894.5406      125160.05    
    204000        3245   0              298.05029      299.7351       10             1             -390237.05     -3494.0742      125160.05    
    205000        3245   0              293.19657      297.14657      10             1             -390236.57     -3145.0573      125160.05    
    206000        3245   0              302.09546      302.49715      10             1             -390239.19     -2643.9123      125160.05    
    207000        3245   0              300.37177      301.72624      10             1             -390238.66     -2980.2624      125160.05    
    208000        3245   0              300.36719      308.49449      10             1             -390236.94     -3174.7851      125160.05    
    209000        3245   0              300.40342      304.97885      10             1             -390236.13     -2519.2629      125160.05    
    210000        3245   0              294.12369      309.64237      10             1             -390235.85     -3118.8462      125160.05    
    211000        3246   0              299.68974      311.79324      11             1             -390309.16     -3056.1318      125160.05    
    212000        3246   0              307.84347      403.37224      11             1             -390311.6      -5546.2824      125160.05    
    213000        3246   0              305.71071      377.53493      11             1             -390323.17     -4658.8413      125160.05    
    214000        3246   0              301.15662      361.39664      11             1             -390330.59     -4729.6394      125160.05    
    215000        3246   0              300.19042      345.21015      11             1             -390335.89     -5129.2903      125160.05    
    216000        3246   0              300.21914      341.3796       11             1             -390339.31     -4671.589       125160.05    
    217000        3246   0              306.53491      339.4322       11             1             -390341.88     -4919.3432      125160.05    
    218000        3246   0              304.46056      333.77131      11             1             -390345.73     -4453.6794      125160.05    
    219000        3246   0              306.02294      305.04487      11             1             -390349.76     -4872.4034      125160.05    
    220000        3246   0              306.18583      314.32352      11             1             -390351.87     -4971.2095      125160.05    
    221000        3246   0              302.58924      307.87717      11             1             -390353.72     -5305.9652      125160.05    
    222000        3246   0              302.71688      303.85201      11             1             -390352.63     -3702.9214      125160.05    
    223000        3246   0              302.83933      307.30591      11             1             -390355.25     -4156.2767      125160.05    
    224000        3246   0              301.82942      307.31567      11             1             -390356.02     -5011.995       125160.05    
    225000        3246   0              297.68564      309.2613       11             1             -390356.1      -4297.1185      125160.05    
    226000        3246   0              289.69296      312.90019      11             1             -390355.71     -3621.5482      125160.05    
    227000        3246   0              305.18095      304.76053      11             1             -390357.56     -4032.5346      125160.05    
    228000        3246   0              302.16322      296.29644      11             1             -390357.39     -3450.4312      125160.05    
    229000        3246   0              306.23664      310.41585      11             1             -390357.7      -3017.0293      125160.05    
    230000        3246   0              311.61947      301.88078      11             1             -390359.26     -3032.0405      125160.05    
    231000        3247   0              299.84659      308.39937      12             1             -390432.37     -2571.334       125160.05    
    232000        3247   0              306.46011      379.11401      12             1             -390435.64     -4982.1094      125160.05    
    233000        3247   0              306.25906      359.84159      12             1             -390446.93     -4128.2454      125160.05    
    234000        3247   0              308.71379      352.91581      12             1             -390451.74     -3663.7678      125160.05    
    235000        3247   0              305.84938      335.49602      12             1             -390456.33     -4572.9208      125160.05    
    236000        3247   0              296.07998      336.22303      12             1             -390459.33     -4378.1155      125160.05    
    237000        3247   0              300.33398      329.2281       12             1             -390460.74     -3805.4513      125160.05    
    238000        3247   0              306.52634      327.2941       12             1             -390463.09     -4369.58        125160.05    
    239000        3247   0              297.41432      320.73278      12             1             -390464.49     -4077.1735      125160.05    
    240000        3247   0              301.4712       322.71634      12             1             -390464.84     -3901.975       125160.05    
    241000        3247   0              306.06473      320.72782      12             1             -390468.04     -3467.6734      125160.05    
    242000        3247   0              303.33425      319.12378      12             1             -390468.34     -3409.8675      125160.05    
    243000        3247   0              308.53249      311.58547      12             1             -390469.55     -4253.8982      125160.05    
    244000        3247   0              296.95815      318.10343      12             1             -390471        -3543.6758      125160.05    
    245000        3247   0              309.84216      309.34409      12             1             -390472.06     -3676.255       125160.05    
    246000        3247   0              300.65157      306.91698      12             1             -390473.44     -3011.3152      125160.05    
    247000        3247   0              296.34255      311.38711      12             1             -390472.88     -2823.4416      125160.05    
    248000        3247   0              296.03131      301.28891      12             1             -390473.41     -3028.8636      125160.05    
    249000        3247   0              296.74275      305.86575      12             1             -390473.23     -3488.9821      125160.05    
    250000        3247   0              295.36921      301.35618      12             1             -390473.37     -2919.3409      125160.05    
    251000        3248   0              303.09142      293.26773      13             1             -390548.87     -2718.9438      125160.05    
    252000        3248   0              292.79408      401.33812      13             1             -390550        -5352.0066      125160.05    
    253000        3248   0              307.20698      372.57511      13             1             -390560.52     -4889.9874      125160.05    
    254000        3248   0              291.34389      347.58391      13             1             -390567.09     -4270.3706      125160.05    
    255000        3248   0              304.51845      358.98282      13             1             -390571.49     -4497.6358      125160.05    
    256000        3248   0              301.9576       343.52187      13             1             -390575.06     -4172.2523      125160.05    
    257000        3248   0              298.22717      340.49308      13             1             -390575.11     -3768.5448      125160.05    
    258000        3248   0              295.42321      337.66912      13             1             -390577.73     -4523.5947      125160.05    
    259000        3248   0              308.93033      336.15281      13             1             -390582.04     -4168.9837      125160.05    
    260000        3248   0              294.64416      322.65284      13             1             -390584.27     -3956.4416      125160.05    
    261000        3248   0              303.50272      316.15332      13             1             -390586.7      -4071.7741      125160.05    
    262000        3248   0              298.67593      325.33864      13             1             -390586.34     -3388.2017      125160.05    
    263000        3248   0              300.89828      317.32089      13             1             -390588.28     -3346.7898      125160.05    
    264000        3248   0              296.11427      315.68034      13             1             -390588.36     -3521.1506      125160.05    
    265000        3248   0              301.11315      326.15031      13             1             -390588.03     -3462.6532      125160.05    
    266000        3248   0              308.41923      311.70464      13             1             -390588.75     -2986.1075      125160.05    
    267000        3248   0              297.49918      306.43541      13             1             -390591.78     -2716.4212      125160.05    
    268000        3248   0              299.88371      317.88809      13             1             -390590.5      -3344.7233      125160.05    
    269000        3248   0              297.78091      309.59059      13             1             -390591.47     -2834.2808      125160.05    
    270000        3248   0              298.85106      297.06943      13             1             -390593.39     -2636.8341      125160.05    
    271000        3249   0              295.31517      309.64948      14             1             -390665.7      -2481.5119      125160.05    
    272000        3249   0              308.47295      399.85858      14             1             -390669.28     -4646.2844      125160.05    
    273000        3249   0              316.78376      371.62987      14             1             -390683.4      -4006.3755      125160.05    
    274000        3249   0              296.02435      355.99722      14             1             -390690.38     -4081.9008      125160.05    
    275000        3249   0              303.67054      345.93051      14             1             -390693.77     -3865.3054      125160.05    
    276000        3249   0              304.34605      336.80594      14             1             -390698.99     -4037.0662      125160.05    
    277000        3249   0              299.62875      337.81708      14             1             -390701.72     -3774.972       125160.05    
    278000        3249   0              296.43568      336.22354      14             1             -390701.78     -3547.588       125160.05    
    279000        3249   0              300.89445      332.26282      14             1             -390704.72     -4088.1981      125160.05    
    280000        3249   0              299.83841      322.76355      14             1             -390706.25     -2661.6367      125160.05    
    281000        3249   0              301.34086      321.31472      14             1             -390708.52     -3373.2759      125160.05    
    282000        3249   0              300.45827      310.64519      14             1             -390709.52     -2811.599       125160.05    
    283000        3249   0              307.11719      335.88396      14             1             -390708.61     -3041.1475      125160.05    
    284000        3249   0              302.34917      317.20238      14             1             -390710.44     -2879.5468      125160.05    
    285000        3249   0              309.63143      317.47566      14             1             -390710.77     -2472.4361      125160.05    
    286000        3249   0              306.1154       319.79568      14             1             -390711.04     -2400.1703      125160.05    
    287000        3249   0              311.33496      312.31864      14             1             -390712.57     -2332.8688      125160.05    
    288000        3249   0              298.10786      308.80543      14             1             -390715.69     -2807.0137      125160.05    
    289000        3249   0              297.42577      302.50524      14             1             -390716.8      -2075.7752      125160.05    
    290000        3249   0              305.51147      302.19485      14             1             -390715.48     -2554.3931      125160.05    
    291000        3250   0              299.08588      311.24668      15             1             -390790.4      -2301.2911      125160.05    
    292000        3250   0              311.21298      388.62808      15             1             -390793.42     -4405.9164      125160.05    
    293000        3250   0              310.46784      375.88226      15             1             -390803.25     -3065.5896      125160.05    
    294000        3250   0              299.99913      367.0426       15             1             -390806.74     -3531.7948      125160.05    
    295000        3250   0              305.51109      352.46988      15             1             -390810.33     -3709.552       125160.05    
    296000        3250   0              298.61338      340.67825      15             1             -390816.45     -3143.7878      125160.05    
    297000        3250   0              299.60834      333.2864       15             1             -390820.8      -3816.1246      125160.05    
    298000        3250   0              297.98148      326.93603      15             1             -390823.45     -3989.4147      125160.05    
    299000        3250   0              295.42107      331.31913      15             1             -390824.55     -3421.0169      125160.05    
    300000        3250   0              300.10676      320.23957      15             1             -390826.91     -3631.7868      125160.05    
    301000        3250   0              296.09915      314.65834      15             1             -390829.79     -4081.145       125160.05    
    302000        3250   0              296.75819      312.1525       15             1             -390831.22     -3098.8705      125160.05    
    303000        3250   0              302.73413      318.88082      15             1             -390831.8      -3585.8558      125160.05    
    304000        3250   0              305.40929      315.2247       15             1             -390832.01     -3478.3048      125160.05    
    305000        3250   0              296.93019      302.8789       15             1             -390833.73     -3624.6274      125160.05    
    306000        3250   0              292.2949       302.80221      15             1             -390835.43     -3876.7869      125160.05    
    307000        3250   0              303.65168      302.43452      15             1             -390835.89     -3063.9072      125160.05    
    308000        3250   0              288.39759      291.19847      15             1             -390837.9      -3626.4627      125160.05    
    309000        3250   0              304.0769       296.55086      15             1             -390837.19     -3745.4656      125160.05    
    310000        3250   0              295.48192      307.82494      15             1             -390837.62     -3215.03        125160.05    
    311000        3251   0              292.68164      301.19145      16             1             -390912.17     -2683.7419      125160.05    
    312000        3251   0              309.5289       377.01227      16             1             -390914.96     -4493.8343      125160.05    
    313000        3251   0              303.05686      348.37064      16             1             -390923.95     -3451.2044      125160.05    
    314000        3251   0              306.27164      352.93501      16             1             -390928.55     -3735.5975      125160.05    
    315000        3251   0              301.25506      337.58396      16             1             -390934.04     -4117.1244      125160.05    
    316000        3251   0              295.91311      337.76871      16             1             -390936.64     -4112.5289      125160.05    
    317000        3251   0              299.5507       338.50274      16             1             -390936.97     -4037.3083      125160.05    
    318000        3251   0              295.0944       323.58602      16             1             -390941.7      -4174.3891      125160.05    
    319000        3251   0              292.77442      341.31097      16             1             -390940.97     -3691.903       125160.05    
    320000        3251   0              298.40595      321.28853      16             1             -390943.28     -3513.3151      125160.05    
    321000        3251   0              311.8638       314.83516      16             1             -390946.41     -3575.71        125160.05    
    322000        3251   0              310.40034      309.55763      16             1             -390947.81     -3650.4202      125160.05    
    323000        3251   0              299.59885      316.86498      16             1             -390947.26     -3676.9         125160.05    
    324000        3251   0              301.96668      310.59799      16             1             -390947.21     -3198.5507      125160.05    
    325000        3251   0              306.7135       315.87108      16             1             -390948.59     -2936.2067      125160.05    
    326000        3251   0              304.86892      305.18621      16             1             -390952.45     -3188.6668      125160.05    
    327000        3251   0              306.64229      302.29005      16             1             -390952.73     -2858.8349      125160.05    
    328000        3251   0              305.4041       306.68618      16             1             -390952.64     -2770.3479      125160.05    
    329000        3251   0              305.16695      302.12681      16             1             -390952.54     -2536.4188      125160.05    
    330000        3251   0              296.96951      306.13996      16             1             -390954.33     -2491.0358      125160.05    
    331000        3252   0              302.89685      300.23118      17             1             -391026.4      -2394.2106      125160.05    
    332000        3252   0              316.33838      384.67028      17             1             -391030.89     -3668.7705      125160.05    
    333000        3252   0              310.05264      342.2871       17             1             -391046.24     -3449.7522      125160.05    
    334000        3252   0              304.30697      346.6858       17             1             -391051.5      -3356.0486      125160.05    
    335000        3252   0              305.22776      331.97064      17             1             -391054.34     -3545.3551      125160.05    
    336000        3252   0              304.26462      334.27275      17             1             -391056.73     -3323.7608      125160.05    
    337000        3252   0              307.35622      328.85027      17             1             -391058.53     -3243.0198      125160.05    
    338000        3252   0              306.39674      323.77175      17             1             -391060.25     -3354.7112      125160.05    
    339000        3252   0              308.8099       323.35014      17             1             -391059.93     -3118.6278      125160.05    
    340000        3252   0              303.85508      325.22681      17             1             -391062.45     -3532.6728      125160.05    
    341000        3252   0              306.50453      331.53839      17             1             -391062.9      -3453.2493      125160.05    
    342000        3252   0              302.27514      318.59163      17             1             -391062.67     -2845.6522      125160.05    
    343000        3252   0              299.8201       320.88285      17             1             -391063.53     -3476.8598      125160.05    
    344000        3252   0              304.46784      309.10904      17             1             -391065.64     -3127.5811      125160.05    
    345000        3252   0              294.68225      311.54004      17             1             -391065.96     -2601.5993      125160.05    
    346000        3252   0              299.84874      311.9228       17             1             -391066.62     -2304.3174      125160.05    
    347000        3252   0              308.75544      310.54146      17             1             -391069.83     -2725.897       125160.05    
    348000        3252   0              308.04512      302.374        17             1             -391072.16     -2283.6298      125160.05    
    349000        3252   0              304.24765      302.82642      17             1             -391073.09     -2447.3344      125160.05    
    350000        3252   0              291.77979      299.43361      17             1             -391074.28     -2070.0816      125160.05    
    351000        3253   0              305.48902      298.71069      18             1             -391147.85     -2243.4596      125160.05    
    352000        3253   0              300.05863      383.78047      18             1             -391148.48     -2781.8882      125160.05    
    353000        3253   0              311.60402      374.57438      18             1             -391155.54     -3547.1586      125160.05    
    354000        3253   0              303.60418      358.26407      18             1             -391163.64     -4215.3306      125160.05    
    355000        3253   0              305.88827      338.99052      18             1             -391168.05     -4107.6541      125160.05    
    356000        3253   0              294.9893       334.80819      18             1             -391172.99     -3793.0451      125160.05    
    357000        3253   0              298.30634      325.58385      18             1             -391176.36     -3770.5279      125160.05    
    358000        3253   0              299.2022       327.47858      18             1             -391179.21     -3372.345       125160.05    
    359000        3253   0              303.68721      313.44895      18             1             -391180.31     -4019.3744      125160.05    
    360000        3253   0              296.63794      315.45849      18             1             -391182.3      -3380.6167      125160.05    
    361000        3253   0              300.01255      324.36984      18             1             -391182.32     -3623.469       125160.05    
    362000        3253   0              306.75043      312.61958      18             1             -391183.17     -3492.174       125160.05    
    363000        3253   0              296.98788      325.97944      18             1             -391184.22     -3408.7567      125160.05    
    364000        3253   0              286.84686      320.57298      18             1             -391185.91     -3476.3249      125160.05    
    365000        3253   0              304.4688       314.10749      18             1             -391185.26     -3101.8941      125160.05    
    366000        3253   0              290.83622      321.06982      18             1             -391186.28     -2967.621       125160.05    
    367000        3253   0              301.13813      317.89468      18             1             -391185.65     -2587.7523      125160.05    
    368000        3253   0              292.25448      329.28985      18             1             -391184.57     -3248.0145      125160.05    
    369000        3253   0              293.7535       314.24604      18             1             -391185.35     -3483.4594      125160.05    
    370000        3253   0              301.87375      320.75965      18             1             -391184.95     -2601.3064      125160.05    
    371000        3254   0              289.47948      310.08657      19             1             -391260.8      -3267.6707      125160.05    
    372000        3254   0              312.51405      384.42268      19             1             -391264.65     -3543.5562      125160.05    
    373000        3254   0              300.19905      370.37584      19             1             -391273.56     -4360.3513      125160.05    
    374000        3254   0              301.42025      370.98767      19             1             -391276.72     -3948.311       125160.05    
    375000        3254   0              299.18109      355.44836      19             1             -391283.44     -3536.7345      125160.05    
    376000        3254   0              302.10851      340.04844      19             1             -391289.4      -3500.8414      125160.05    
    377000        3254   0              295.83088      331.33792      19             1             -391292.88     -3588.7537      125160.05    
    378000        3254   0              303.35083      351.6104       19             1             -391294.49     -3760.5759      125160.05    
    379000        3254   0              301.06302      323.52239      19             1             -391296.85     -3061.7386      125160.05    
    380000        3254   0              303.85503      327.8623       19             1             -391298.16     -3404.0652      125160.05    
    381000        3254   0              298.42588      317.98862      19             1             -391300.08     -3020.8734      125160.05    
    382000        3254   0              294.13696      320.45934      19             1             -391301.41     -3489.7882      125160.05    
    383000        3254   0              298.4346       311.16977      19             1             -391304.78     -3315.1283      125160.05    
    384000        3254   0              308.84115      325.14443      19             1             -391304.81     -3665.8939      125160.05    
    385000        3254   0              301.03446      311.79216      19             1             -391307.29     -2920.7136      125160.05    
    386000        3254   0              301.38124      303.41527      19             1             -391309.35     -3486.1892      125160.05    
    387000        3254   0              297.94097      312.86404      19             1             -391308.91     -3281.9244      125160.05    
    388000        3254   0              297.32705      303.00617      19             1             -391309.65     -3280.2979      125160.05    
    389000        3254   0              304.00294      298.4973       19             1             -391311.77     -3308.3582      125160.05    
    390000        3254   0              295.23274      305.63374      19             1             -391312.05     -3322.3772      125160.05    
    391000        3255   0              307.15904      313.86451      20             1             -391382.19     -2946.5152      125160.05    
    392000        3255   0              310.73045      389.42657      20             1             -391390.89     -4103.9586      125160.05    
    393000        3255   0              311.69393      361.58896      20             1             -391402.01     -3901.7273      125160.05    
    394000        3255   0              308.88175      358.634        20             1             -391407.14     -4846.0456      125160.05    
    395000        3255   0              301.71427      347.24625      20             1             -391410.56     -4024.3324      125160.05    
    396000        3255   0              292.74852      333.90768      20             1             -391412.85     -4185.2337      125160.05    
    397000        3255   0              305.59013      339.78352      20             1             -391416.05     -4704.1054      125160.05    
    398000        3255   0              300.89091      328.67284      20             1             -391419.3      -4038.498       125160.05    
    399000        3255   0              298.42886      325.59873      20             1             -391421.16     -4477.8686      125160.05    
    400000        3255   0              304.17252      330.92708      20             1             -391423.31     -3888.7344      125160.05    
    401000        3255   0              299.43814      321.28093      20             1             -391424.93     -3959.5293      125160.05    
    402000        3255   0              300.78421      311.65112      20             1             -391426        -3901.1972      125160.05    
    403000        3255   0              296.55313      310.46934      20             1             -391427.59     -3766.0904      125160.05    
    404000        3255   0              308.21368      316.01424      20             1             -391426.95     -3220.4082      125160.05    
    405000        3255   0              297.80048      312.07635      20             1             -391427.45     -3422.2867      125160.05    
    406000        3255   0              305.04233      314.88113      20             1             -391426.55     -3389.6516      125160.05    
    407000        3255   0              303.19553      309.17066      20             1             -391426.45     -3372.6935      125160.05    
    408000        3255   0              303.25517      312.63322      20             1             -391427.88     -3384.7458      125160.05    
    409000        3255   0              307.52224      302.26407      20             1             -391428.73     -3141.2414      125160.05    
    410000        3255   0              293.91218      302.35867      20             1             -391429.03     -3279.068       125160.05    
    411000        3256   0              305.55776      301.08569      21             1             -391503.44     -2256.566       125160.05    
    412000        3256   0              297.01285      386.47841      21             1             -391506.18     -4513.1056      125160.05    
    413000        3256   0              312.21543      376.26144      21             1             -391517.49     -4600.2466      125160.05    
    414000        3256   0              308.01958      366.68854      21             1             -391521.15     -4912.2603      125160.05    
    415000        3256   0              306.30918      354.17761      21             1             -391527.03     -4242.9997      125160.05    
    416000        3256   0              295.26819      350.52042      21             1             -391530.43     -4972.8091      125160.05    
    417000        3256   0              302.17062      341.246        21             1             -391534.47     -4112.0321      125160.05    
    418000        3256   0              294.41883      335.08657      21             1             -391536.5      -4132.6707      125160.05    
    419000        3256   0              302.19822      327.84913      21             1             -391539.28     -4253.0958      125160.05    
    420000        3256   0              295.86527      323.05618      21             1             -391539.3      -4746.0563      125160.05    
    421000        3256   0              305.91961      320.08032      21             1             -391541.12     -4427.5816      125160.05    
    422000        3256   0              302.70719      335.17021      21             1             -391542.01     -4490.4215      125160.05    
    423000        3256   0              301.07739      319.50103      21             1             -391542.45     -3858.4752      125160.05    
    424000        3256   0              309.25906      321.29183      21             1             -391544.5      -4864.7285      125160.05    
    425000        3256   0              298.20043      312.03164      21             1             -391548.37     -4233.4232      125160.05    
    426000        3256   0              300.69145      309.71328      21             1             -391547.71     -4038.2212      125160.05    
    427000        3256   0              299.619        323.43534      21             1             -391547.22     -4677.6012      125160.05    
    428000        3256   0              298.32325      307.0735       21             1             -391549.11     -4292.9887      125160.05    
    429000        3256   0              297.49539      304.52773      21             1             -391548.11     -4450.9777      125160.05    
    430000        3256   0              298.43869      302.37667      21             1             -391550.09     -4246.9748      125160.05    
    431000        3257   0              302.36144      306.13685      22             1             -391623.11     -3740.1446      125160.05    
    432000        3257   0              302.89979      399.16234      22             1             -391627.42     -6270.3934      125160.05    
    433000        3257   0              295.29682      376.76902      22             1             -391637.32     -6166.7072      125160.05    
    434000        3257   0              306.98402      356.85581      22             1             -391643.33     -6211.8945      125160.05    
    435000        3257   0              307.10244      348.60946      22             1             -391649.48     -5537.831       125160.05    
    436000        3257   0              306.31708      354.16485      22             1             -391654        -5663.827       125160.05    
    437000        3257   0              299.74138      327.89767      22             1             -391655.82     -5506.6288      125160.05    
    438000        3257   0              306.3219       342.58629      22             1             -391657.33     -6725.2891      125160.05    
    439000        3257   0              297.42474      326.91412      22             1             -391659.23     -5289.66        125160.05    
    440000        3257   0              295.15306      328.17415      22             1             -391660.81     -4893.5831      125160.05    
    441000        3257   0              299.6473       330.80657      22             1             -391662.31     -5247.7526      125160.05    
    442000        3257   0              301.76503      316.28835      22             1             -391664.77     -5611.0959      125160.05    
    443000        3257   0              300.62732      316.27362      22             1             -391667.07     -5351.9867      125160.05    
    444000        3257   0              302.48051      321.70023      22             1             -391667.61     -5716.8442      125160.05    
    445000        3257   0              301.04707      310.00487      22             1             -391669.44     -4648.0362      125160.05    
    446000        3257   0              299.26291      300.92212      22             1             -391671.46     -5160.9081      125160.05    
    447000        3257   0              306.37564      305.6687       22             1             -391672.1      -5549.6701      125160.05    
    448000        3257   0              301.61184      309.51311      22             1             -391672.22     -5184.9949      125160.05    
    449000        3257   0              292.03649      307.87353      22             1             -391673.5      -5471.9985      125160.05    
    450000        3257   0              297.72383      305.15535      22             1             -391675.66     -5084.629       125160.05    
    451000        3258   0              299.80213      288.7463       23             1             -391750.63     -4711.6865      125160.05    
    452000        3258   0              300.97686      366.13081      23             1             -391752.13     -6998.8852      125160.05    
    453000        3258   0              306.06207      361.16034      23             1             -391761.58     -6197.9894      125160.05    
    454000        3258   0              298.37355      348.98263      23             1             -391766.08     -6791.6324      125160.05    
    455000        3258   0              297.64258      345.88218      23             1             -391770.97     -6397.3071      125160.05    
    456000        3258   0              302.95071      329.20727      23             1             -391775.64     -6203.6701      125160.05    
    457000        3258   0              289.90035      332.72163      23             1             -391777.13     -5834.3099      125160.05    
    458000        3258   0              297.00274      332.43107      23             1             -391779.35     -6147.8271      125160.05    
    459000        3258   0              298.17322      320.3541       23             1             -391782.75     -6058.0584      125160.05    
    460000        3258   0              310.34057      321.76185      23             1             -391783.83     -6221.3582      125160.05    
    461000        3258   0              300.22364      310.19866      23             1             -391787.64     -6020.2502      125160.05    
    462000        3258   0              308.62703      313.74595      23             1             -391786.82     -6110.6007      125160.05    
    463000        3258   0              300.60201      312.10897      23             1             -391788.12     -6569.3482      125160.05    
    464000        3258   0              303.48566      310.01397      23             1             -391789.14     -5997.5501      125160.05    
    465000        3258   0              301.16025      299.91679      23             1             -391789.61     -6160.621       125160.05    
    466000        3258   0              299.86611      306.12537      23             1             -391790.35     -5832.1334      125160.05    
    467000        3258   0              299.8346       295.57024      23             1             -391792.12     -5932.1487      125160.05    
    468000        3258   0              292.5126       302.10274      23             1             -391791.59     -6060.9878      125160.05    
    469000        3258   0              291.95254      299.0858       23             1             -391793.81     -5873.7379      125160.05    
    470000        3258   0              291.93363      294.89423      23             1             -391793.36     -6033.8808      125160.05    
    471000        3259   0              305.07057      295.13721      24             1             -391867        -5866.5476      125160.05    
    472000        3259   0              297.61214      393.31097      24             1             -391869.2      -7033.4083      125160.05    
    473000        3259   0              301.41922      367.85792      24             1             -391877.46     -6935.9419      125160.05    
    474000        3259   0              300.62856      354.40818      24             1             -391883.11     -6452.716       125160.05    
    475000        3259   0              304.106        354.29062      24             1             -391888.85     -6579.6614      125160.05    
    476000        3259   0              301.7949       342.50966      24             1             -391893.3      -5925.5977      125160.05    
    477000        3259   0              295.39285      333.93821      24             1             -391896.27     -6432.3997      125160.05    
    478000        3259   0              294.45766      335.94831      24             1             -391898.69     -5837.8625      125160.05    
    479000        3259   0              307.97664      327.52437      24             1             -391900.91     -5921.5863      125160.05    
    480000        3259   0              301.89994      328.26532      24             1             -391901.93     -5911.536       125160.05    
    481000        3259   0              311.27969      323.33354      24             1             -391903.94     -6140.8673      125160.05    
    482000        3259   0              291.40656      328.28518      24             1             -391903.79     -5582.2914      125160.05    
    483000        3259   0              301.27486      311.49576      24             1             -391906.72     -5850.8576      125160.05    
    484000        3259   0              295.65722      312.2985       24             1             -391907.89     -5966.8838      125160.05    
    485000        3259   0              299.13509      301.68396      24             1             -391910.18     -5625.5252      125160.05    
    486000        3259   0              287.41701      319.5752       24             1             -391908.21     -5252.6097      125160.05    
    487000        3259   0              292.28664      317.63935      24             1             -391909.09     -5605.2278      125160.05    
    488000        3259   0              302.71053      314.34856      24             1             -391908.95     -5985.6652      125160.05    
    489000        3259   0              306.79201      309.15668      24             1             -391909.59     -5277.813       125160.05    
    490000        3259   0              303.1705       318.53385      24             1             -391910.5      -5276.9956      125160.05    
    491000        3260   0              303.07275      309.37336      25             1             -391986.08     -5179.2448      125160.05    
    492000        3260   0              317.29351      382.50635      25             1             -391994.22     -6748.7517      125160.05    
    493000        3260   0              310.93749      367.67902      25             1             -392006.14     -5985.5109      125160.05    
    494000        3260   0              298.03864      352.32921      25             1             -392011.08     -5541.4032      125160.05    
    495000        3260   0              305.65395      352.33641      25             1             -392013.67     -5603.2544      125160.05    
    496000        3260   0              300.90331      336.9563       25             1             -392018.95     -6192.7102      125160.05    
    497000        3260   0              296.96921      336.64865      25             1             -392020.49     -5340.4575      125160.05    
    498000        3260   0              306.27695      328.41342      25             1             -392022.29     -5448.7215      125160.05    
    499000        3260   0              298.95043      320.29365      25             1             -392024.97     -4489.2466      125160.05    
    500000        3260   0              295.16282      316.75553      25             1             -392025.79     -4845.5636      125160.05    
    501000        3260   0              297.82891      313.6116       25             1             -392026.91     -4413.586       125160.05    
    502000        3260   0              303.26755      327.08858      25             1             -392028.12     -4410.1459      125160.05    
    503000        3260   0              302.10388      321.28251      25             1             -392030.93     -4261.5431      125160.05    
    504000        3260   0              298.54592      313.03318      25             1             -392031.86     -3734.1058      125160.05    
    505000        3260   0              305.22394      314.05453      25             1             -392031.85     -3788.3433      125160.05    
    506000        3260   0              290.61654      315.4936       25             1             -392032.64     -2951.2379      125160.05    
    507000        3260   0              300.20461      313.95843      25             1             -392033.6      -2681.9378      125160.05    
    508000        3260   0              296.3506       305.1455       25             1             -392036.2      -2671.793       125160.05    
    509000        3260   0              301.64905      297.02552      25             1             -392036.89     -2882.9694      125160.05    
    510000        3260   0              299.85133      308.1582       25             1             -392037.35     -2977.7778      125160.05    
    511000        3261   0              300.24904      300.01519      26             1             -392112.49     -2219.6637      125160.05    
    512000        3261   0              314.46233      374.77012      26             1             -392118.91     -4572.5114      125160.05    
    513000        3261   0              296.90433      347.44147      26             1             -392128.33     -3304.844       125160.05    
    514000        3261   0              295.81414      351.72816      26             1             -392133.87     -2984.5611      125160.05    
    515000        3261   0              305.96477      341.35377      26             1             -392137.39     -3214.7502      125160.05    
    516000        3261   0              304.73507      335.41985      26             1             -392139.21     -3018.8194      125160.05    
    517000        3261   0              302.41421      346.70708      26             1             -392140.44     -2192.4969      125160.05    
    518000        3261   0              310.08287      329.84547      26             1             -392141.11     -2322.2251      125160.05    
    519000        3261   0              300.18619      325.60278      26             1             -392144.56     -1490.3075      125160.05    
    520000        3261   0              288.87971      319.79908      26             1             -392145.74     -2209.6062      125160.05    
    521000        3261   0              301.32038      307.0242       26             1             -392148.56     -2040.5503      125160.05    
    522000        3261   0              298.43187      307.15804      26             1             -392148.63     -1710.462       125160.05    
    523000        3261   0              295.48202      319.60304      26             1             -392146.68     -1626.8792      125160.05    
    524000        3261   0              302.47726      309.30468      26             1             -392148.07     -2205.097       125160.05    
    525000        3261   0              295.56724      306.90425      26             1             -392150.79     -1507.444       125160.05    
    526000        3261   0              300.9294       307.67489      26             1             -392149.49     -1757.255       125160.05    
    527000        3261   0              304.8552       309.40345      26             1             -392150.4      -1416.391       125160.05    
    528000        3261   0              302.64912      303.96666      26             1             -392151.32     -1712.1459      125160.05    
    529000        3261   0              308.52123      310.20278      26             1             -392150.47     -1436.0802      125160.05    
    530000        3261   0              302.36921      309.95799      26             1             -392153.18     -1547.65        125160.05    
    531000        3262   0              293.86438      310.27162      27             1             -392225.68     -622.11641      125160.05    
    532000        3262   0              298.09585      384.28704      27             1             -392225.44     -1726.7411      125160.05    
    533000        3262   0              304.67845      380.17455      27             1             -392233.49     -1702.3581      125160.05    
    534000        3262   0              304.64206      367.77754      27             1             -392239.92     -1362.3042      125160.05    
    535000        3262   0              303.45578      360.72484      27             1             -392244.45     -1375.2632      125160.05    
    536000        3262   0              299.99287      355.15938      27             1             -392247.72     -1093.5129      125160.05    
    537000        3262   0              303.291        340.05808      27             1             -392249.32     -914.2582       125160.05    
    538000        3262   0              295.70569      352.68849      27             1             -392253.67     -1008.4312      125160.05    
    539000        3262   0              303.5445       327.58088      27             1             -392254.4      -969.53998      125160.05    
    540000        3262   0              298.16433      322.25131      27             1             -392259.24     -888.52516      125160.05    
    541000        3262   0              295.97441      325.90769      27             1             -392260.68     -307.42159      125160.05    
    542000        3262   0              300.04021      334.4225       27             1             -392261.88     -578.01468      125160.05    
    543000        3262   0              295.42479      326.9915       27             1             -392263.48     -774.56188      125160.05    
    544000        3262   0              293.95482      309.84996      27             1             -392265.05     -17.536487      125160.05    
    545000        3262   0              302.6735       319.54535      27             1             -392266.53     -473.99237      125160.05    
    546000        3262   0              302.71491      302.2138       27             1             -392268.33      23.913993      125160.05    
    547000        3262   0              304.27478      307.39984      27             1             -392270.49     -504.85424      125160.05    
    548000        3262   0              305.42598      296.17016      27             1             -392270.55     -225.1664       125160.05    
    549000        3262   0              305.70409      301.88261      27             1             -392270.46     -848.46753      125160.05    
    550000        3262   0              299.5427       306.36867      27             1             -392270.32     -180.05111      125160.05    
    551000        3263   0              299.22733      302.79213      28             1             -392345.38     -301.44202      125160.05    
    552000        3263   0              302.18635      393.4438       28             1             -392345.42     -1818.8922      125160.05    
    553000        3263   0              306.34745      387.13618      28             1             -392353.24     -1390.0767      125160.05    
    554000        3263   0              302.4868       370.24006      28             1             -392357.44     -2099.0025      125160.05    
    555000        3263   0              296.0524       359.67852      28             1             -392361.13     -1857.8519      125160.05    
    556000        3263   0              303.55132      370.01752      28             1             -392364.69     -2375.1937      125160.05    
    557000        3263   0              310.41395      356.53095      28             1             -392368.07     -2281.7603      125160.05    
    558000        3263   0              294.97312      347.08089      28             1             -392369.52     -2239.5346      125160.05    
    559000        3263   0              301.96454      336.98382      28             1             -392372.99     -1556.0882      125160.05    
    560000        3263   0              297.43881      339.28789      28             1             -392375.19     -1616.113       125160.05    
    561000        3263   0              305.65031      327.88105      28             1             -392378.03     -1999.947       125160.05    
    562000        3263   0              306.13173      323.02941      28             1             -392380.76     -1572.0275      125160.05    
    563000        3263   0              292.93651      316.84972      28             1             -392383.28     -1109.9219      125160.05    
    564000        3263   0              299.65005      317.7522       28             1             -392383.8      -1798.2365      125160.05    
    565000        3263   0              301.03015      313.85994      28             1             -392383.88     -1427.9289      125160.05    
    566000        3263   0              304.59821      314.86895      28             1             -392385.18     -1739.4705      125160.05    
    567000        3263   0              295.18715      315.3727       28             1             -392385.79     -1017.5374      125160.05    
    568000        3263   0              305.90733      309.27047      28             1             -392389.38     -1879.6982      125160.05    
    569000        3263   0              308.83586      303.87709      28             1             -392390.3      -1447.7402      125160.05    
    570000        3263   0              301.72198      301.81845      28             1             -392390.96     -1425.7857      125160.05    
    571000        3264   0              301.63931      309.72375      29             1             -392463.91     -1158.046       125160.05    
    572000        3264   0              299.43399      385.2513       29             1             -392466.84     -2902.5754      125160.05    
    573000        3264   0              299.50999      376.45563      29             1             -392473.72     -2152.4897      125160.05    
    574000        3264   0              305.18943      366.08539      29             1             -392479.36     -2127.7892      125160.05    
    575000        3264   0              301.42353      352.73775      29             1             -392483.77     -2585.1107      125160.05    
    576000        3264   0              304.73388      345.4118       29             1             -392487.05     -2134.3857      125160.05    
    577000        3264   0              307.66178      345.36478      29             1             -392488.91     -2348.7408      125160.05    
    578000        3264   0              302.44832      347.77196      29             1             -392491.41     -1765.2685      125160.05    
    579000        3264   0              303.36563      332.37886      29             1             -392493.95     -2339.626       125160.05    
    580000        3264   0              300.12448      341.64224      29             1             -392496.29     -2025.0705      125160.05    
    581000        3264   0              299.35316      336.68374      29             1             -392498.35     -1953.05        125160.05    
    582000        3264   0              303.80753      332.42966      29             1             -392500.89     -2488.5807      125160.05    
    583000        3264   0              301.64467      319.8479       29             1             -392501.7      -2075.1855      125160.05    
    584000        3264   0              296.8547       323.39013      29             1             -392501.99     -2111.741       125160.05    
    585000        3264   0              300.34956      321.47635      29             1             -392502.27     -2256.9948      125160.05    
    586000        3264   0              298.03446      323.22843      29             1             -392504.61     -2427.8115      125160.05    
    587000        3264   0              290.27996      322.50347      29             1             -392503.61     -1730.1513      125160.05    
    588000        3264   0              300.98459      316.04002      29             1             -392505.51     -2386.062       125160.05    
    589000        3264   0              300.46756      301.44099      29             1             -392507.74     -1730.9446      125160.05    
    590000        3264   0              300.80789      319.81256      29             1             -392508        -1731.5154      125160.05    
    591000        3265   0              299.92477      310.56214      30             1             -392582.83     -1616.0762      125160.05    
    592000        3265   0              313.41789      378.22656      30             1             -392589.18     -3906.1616      125160.05    
    593000        3265   0              291.30281      368.82929      30             1             -392598.4      -2939.7464      125160.05    
    594000        3265   0              301.48127      358.97779      30             1             -392601.66     -2859.5172      125160.05    
    595000        3265   0              297.64202      346.04659      30             1             -392606.57     -2320.3788      125160.05    
    596000        3265   0              299.62304      346.46676      30             1             -392609.15     -2415.7481      125160.05    
    597000        3265   0              297.5803       345.64928      30             1             -392612.55     -2478.3794      125160.05    
    598000        3265   0              303.12024      335.24379      30             1             -392613.48     -2472.486       125160.05    
    599000        3265   0              302.50606      323.07824      30             1             -392616.71     -1258.4538      125160.05    
    600000        3265   0              298.4689       312.20978      30             1             -392619.24     -1022.9055      125160.05    
    601000        3265   0              304.84215      319.56421      30             1             -392620.48     -1581.801       125160.05    
    602000        3265   0              303.57312      316.27339      30             1             -392621.23     -1143.0332      125160.05    
    603000        3265   0              303.12014      316.15465      30             1             -392623.33     -936.12703      125160.05    
    604000        3265   0              288.94247      321.95741      30             1             -392622.11     -1235.9854      125160.05    
    605000        3265   0              302.64347      306.29639      30             1             -392623.93     -1211.6165      125160.05    
    606000        3265   0              294.39345      309.46174      30             1             -392623.95     -1086.2331      125160.05    
    607000        3265   0              300.14431      310.40304      30             1             -392624.03     -688.43879      125160.05    
    608000        3265   0              293.89858      313.20775      30             1             -392623        -1120.9529      125160.05    
    609000        3265   0              309.72798      310.73178      30             1             -392623.88     -1037.8636      125160.05    
    610000        3265   0              305.08428      306.86205      30             1             -392623.47     -781.66052      125160.05    
    611000        3266   0              311.03335      307.51705      31             1             -392699.26     -781.33206      125160.05    
    612000        3266   0              299.41756      376.57154      31             1             -392700.48     -1960.7762      125160.05    
    613000        3266   0              297.07762      384.50059      31             1             -392704.42     -1552.4542      125160.05    
    614000        3266   0              310.58693      350.88615      31             1             -392709.99     -1657.3758      125160.05    
    615000        3266   0              303.64799      364.61938      31             1             -392714.59     -1354.3168      125160.05    
    616000        3266   0              305.49613      349.14499      31             1             -392718.43     -856.05742      125160.05    
    617000        3266   0              302.55906      344.8876       31             1             -392723.27     -1371.1858      125160.05    
    618000        3266   0              303.15729      335.06268      31             1             -392724.67     -1243.71        125160.05    
    619000        3266   0              304.35012      348.79949      31             1             -392725.67     -751.69576      125160.05    
    620000        3266   0              293.56025      343.28779      31             1             -392727.46     -1012.1545      125160.05    
    621000        3266   0              299.86714      330.5813       31             1             -392730.07     -434.77751      125160.05    
    622000        3266   0              307.49559      333.70469      31             1             -392732.9      -371.27093      125160.05    
    623000        3266   0              305.0487       327.88814      31             1             -392734.14     -899.12876      125160.05    
    624000        3266   0              300.46811      318.62719      31             1             -392734.83     -260.46952      125160.05    
    625000        3266   0              302.17341      321.90278      31             1             -392736.91     -819.14103      125160.05    
    626000        3266   0              301.86192      319.0251       31             1             -392738.01     -810.45955      125160.05    
    627000        3266   0              308.39459      314.31028      31             1             -392739.56     -1431.1878      125160.05    
    628000        3266   0              306.59559      312.39162      31             1             -392739.45     -437.26154      125160.05    
    629000        3266   0              293.15929      313.33188      31             1             -392739.62     -764.95252      125160.05    
    630000        3266   0              295.44805      315.26366      31             1             -392740.55     -674.48705      125160.05    
    631000        3267   0              301.80794      314.8408       32             1             -392815.85     -468.71295      125160.05    
    632000        3267   0              309.64401      398.21977      32             1             -392817.4      -2518.3433      125160.05    
    633000        3267   0              306.25776      381.03709      32             1             -392825.54     -2948.9064      125160.05    
    634000        3267   0              306.34836      387.44         32             1             -392830.17     -2445.506       125160.05    
    635000        3267   0              308.76196      360.49205      32             1             -392835.2      -2160.5918      125160.05    
    636000        3267   0              302.90506      354.5884       32             1             -392840.77     -2580.9011      125160.05    
    637000        3267   0              306.88717      357.47284      32             1             -392843.71     -1969.8534      125160.05    
    638000        3267   0              297.49688      346.55837      32             1             -392846.91     -1405.4678      125160.05    
    639000        3267   0              297.54157      347.14708      32             1             -392850.39     -1938.1452      125160.05    
    640000        3267   0              288.75494      340.34052      32             1             -392852.93     -1268.5695      125160.05    
    641000        3267   0              294.00916      326.29102      32             1             -392852.75     -1200.2911      125160.05    
    642000        3267   0              302.89623      323.50388      32             1             -392856.06     -1592.1875      125160.05    
    643000        3267   0              298.26369      322.20087      32             1             -392856.62     -1313.5306      125160.05    
    644000        3267   0              302.4962       330.03213      32             1             -392858.85     -1477.5025      125160.05    
    645000        3267   0              294.82061      312.84416      32             1             -392860.47     -616.95816      125160.05    
    646000        3267   0              301.7416       314.05493      32             1             -392859.56     -1538.5218      125160.05    
    647000        3267   0              298.45115      315.05658      32             1             -392861.48     -1556.0247      125160.05    
    648000        3267   0              302.87294      313.75257      32             1             -392863.03     -1146.8348      125160.05    
    649000        3267   0              299.03811      309.18131      32             1             -392865.17     -1205.8418      125160.05    
    650000        3267   0              301.89621      316.49308      32             1             -392863.89     -1071.2409      125160.05    
    651000        3268   0              310.82185      318.59631      33             1             -392936.54     -732.80617      125160.05    
    652000        3268   0              311.99847      396.27316      33             1             -392943.17     -3484.6685      125160.05    
    653000        3268   0              296.98687      379.77235      33             1             -392953.14     -3214.1765      125160.05    
    654000        3268   0              307.94441      367.13879      33             1             -392958.29     -3108.126       125160.05    
    655000        3268   0              308.97486      360.19585      33             1             -392963.37     -2669.0129      125160.05    
    656000        3268   0              309.47831      342.56744      33             1             -392966.5      -3095.2979      125160.05    
    657000        3268   0              298.04886      349.38986      33             1             -392970.14     -2463.8506      125160.05    
    658000        3268   0              305.5053       330.88185      33             1             -392974.5      -3056.6291      125160.05    
    659000        3268   0              291.95699      342.90478      33             1             -392974.13     -3242.3018      125160.05    
    660000        3268   0              307.07333      334.54903      33             1             -392975.93     -2583.4686      125160.05    
    661000        3268   0              301.93665      332.92839      33             1             -392977.68     -1933.2244      125160.05    
    662000        3268   0              293.80215      320.75781      33             1             -392981.55     -1797.5396      125160.05    
    663000        3268   0              307.47448      317.27942      33             1             -392981.79     -1775.1866      125160.05    
    664000        3268   0              295.92441      323.99469      33             1             -392981.01     -1203.5665      125160.05    
    665000        3268   0              305.7307       337.63059      33             1             -392982.31     -1167.8422      125160.05    
    666000        3268   0              295.27216      310.39812      33             1             -392985.57     -1585.4056      125160.05    
    667000        3268   0              300.55826      307.12604      33             1             -392986.97     -1107.1377      125160.05    
    668000        3268   0              297.28601      307.79088      33             1             -392988.61     -648.77076      125160.05    
    669000        3268   0              308.22923      305.38896      33             1             -392988.5      -1269.8876      125160.05    
    670000        3268   0              296.91455      302.78467      33             1             -392990.22     -740.89818      125160.05    
    671000        3269   0              299.38279      296.52244      34             1             -393064.9      -573.75982      125160.05    
    672000        3269   0              297.45169      394.31209      34             1             -393064.99     -1321.1757      125160.05    
    673000        3269   0              294.53574      378.28417      34             1             -393072.41     -1067.6694      125160.05    
    674000        3269   0              310.51477      370.51443      34             1             -393077.67     -1457.9373      125160.05    
    675000        3269   0              301.99728      371.7325       34             1             -393081.55     -1881.9636      125160.05    
    676000        3269   0              301.34659      354.69215      34             1             -393086.87     -1708.8639      125160.05    
    677000        3269   0              304.2888       343.09563      34             1             -393089.77     -1285.5004      125160.05    
    678000        3269   0              299.83426      345.27939      34             1             -393093.31     -1296.2653      125160.05    
    679000        3269   0              311.3909       337.79424      34             1             -393093.16     -2211.2657      125160.05    
    680000        3269   0              304.09739      329.56285      34             1             -393097.66     -1823.7254      125160.05    
    681000        3269   0              306.85389      323.78498      34             1             -393098.66     -1805.8355      125160.05    
    682000        3269   0              296.27843      337.50413      34             1             -393099.11     -2261.9862      125160.05    
    683000        3269   0              300.46188      315.90767      34             1             -393100.64     -1725.7904      125160.05    
    684000        3269   0              306.92413      324.07253      34             1             -393102.77     -1896.3461      125160.05    
    685000        3269   0              304.8469       324.36706      34             1             -393104.93     -2355.9059      125160.05    
    686000        3269   0              302.46887      317.8951       34             1             -393104.26     -1851.1624      125160.05    
    687000        3269   0              288.12368      316.3875       34             1             -393104.95     -2094.8354      125160.05    
    688000        3269   0              296.35637      320.27819      34             1             -393105.39     -1993.3861      125160.05    
    689000        3269   0              303.11777      310.52695      34             1             -393108.12     -2463.5892      125160.05    
    690000        3269   0              294.34298      312.30679      34             1             -393109.14     -1856.6798      125160.05    
    691000        3270   0              305.09417      299.99768      35             1             -393182.65     -1733.843       125160.05    
    692000        3270   0              310.54547      402.8499       35             1             -393183.93     -3794.3737      125160.05    
    693000        3270   0              296.9355       377.07908      35             1             -393193.55     -4041.051       125160.05    
    694000        3270   0              296.13022      359.54664      35             1             -393197.79     -3255.921       125160.05    
    695000        3270   0              306.21566      366.82991      35             1             -393199.25     -3691.5972      125160.05    
    696000        3270   0              297.05829      356.67444      35             1             -393202.6      -2999.0593      125160.05    
    697000        3270   0              296.82924      356.82927      35             1             -393203.55     -2662.2008      125160.05    
    698000        3270   0              296.55147      348.6086       35             1             -393205.79     -1647.6809      125160.05    
    699000        3270   0              303.32347      339.44216      35             1             -393209.25     -1552.155       125160.05    
    700000        3270   0              305.57296      334.81717      35             1             -393214.05     -1044.6952      125160.05    
    701000        3270   0              295.37924      342.33959      35             1             -393215.56     -1140.6375      125160.05    
    702000        3270   0              292.00676      334.00206      35             1             -393215.64     -390.69786      125160.05    
    703000        3270   0              297.32155      330.87363      35             1             -393217.18     -107.12693      125160.05    
    704000        3270   0              300.45828      337.80773      35             1             -393217.99     -479.75309      125160.05    
    705000        3270   0              318.3954       329.12615      35             1             -393220.56     -404.47117      125160.05    
    706000        3270   0              290.52207      324.41513      35             1             -393220.5      -179.33856      125160.05    
    707000        3270   0              298.30574      330.81065      35             1             -393218.18      115.55212      125160.05    
    708000        3270   0              301.54484      313.85609      35             1             -393221.29     -473.15335      125160.05    
    709000        3270   0              302.09412      318.0632       35             1             -393222.09      359.85135      125160.05    
    710000        3270   0              302.20221      317.56852      35             1             -393221.67      158.17182      125160.05    
    711000        3271   0              307.18642      308.67275      36             1             -393298.07      370.23449      125160.05    
    712000        3271   0              304.26676      389.49124      36             1             -393301.83     -1411.4196      125160.05    
    713000        3271   0              299.07164      380.13297      36             1             -393309.35     -1477.6839      125160.05    
    714000        3271   0              297.56794      362.62229      36             1             -393312.75     -1915.1005      125160.05    
    715000        3271   0              308.0909       363.61979      36             1             -393318.63     -1988.1137      125160.05    
    716000        3271   0              303.16188      363.68699      36             1             -393321.46     -2847.8894      125160.05    
    717000        3271   0              300.82136      354.14759      36             1             -393324.5      -2515.2832      125160.05    
    718000        3271   0              307.10915      334.71481      36             1             -393326.85     -2685.3467      125160.05    
    719000        3271   0              301.09569      334.31484      36             1             -393330.32     -2909.4103      125160.05    
    720000        3271   0              305.17114      335.17049      36             1             -393332.32     -3341.2702      125160.05    
    721000        3271   0              301.49917      319.13502      36             1             -393335.37     -2862.9459      125160.05    
    722000        3271   0              297.22997      320.60594      36             1             -393338.6      -2936.0918      125160.05    
    723000        3271   0              301.75325      318.67112      36             1             -393338.87     -2592.1967      125160.05    
    724000        3271   0              292.32875      319.14218      36             1             -393340.82     -2258.8185      125160.05    
    725000        3271   0              305.25862      314.8235       36             1             -393342.25     -2663.0177      125160.05    
    726000        3271   0              302.30922      312.00569      36             1             -393343.69     -2754.9842      125160.05    
    727000        3271   0              291.95348      313.292        36             1             -393342.43     -2193.4815      125160.05    
    728000        3271   0              302.93709      314.93976      36             1             -393343.75     -2556.9937      125160.05    
    729000        3271   0              305.73864      306.2926       36             1             -393344.78     -2285.322       125160.05    
    730000        3271   0              298.97279      313.26849      36             1             -393344.85     -2102.2877      125160.05    
    731000        3272   0              295.94054      315.76254      37             1             -393417.86     -1726.6131      125160.05    
    732000        3272   0              306.18081      396.26331      37             1             -393420.59     -2745.7537      125160.05    
    733000        3272   0              303.3715       393.15916      37             1             -393427.17     -2743.4891      125160.05    
    734000        3272   0              299.56892      369.95858      37             1             -393433.57     -2256.6923      125160.05    
    735000        3272   0              300.52271      366.6166       37             1             -393436.98     -1812.1794      125160.05    
    736000        3272   0              298.18124      355.58002      37             1             -393439.5      -779.43479      125160.05    
    737000        3272   0              304.29434      352.64532      37             1             -393442.78     -582.32631      125160.05    
    738000        3272   0              316.1174       357.18291      37             1             -393446.47     -626.80232      125160.05    
    739000        3272   0              304.15568      353.15764      37             1             -393450.07     -273.07762      125160.05    
    740000        3272   0              294.24169      332.13904      37             1             -393450.99      114.1311       125160.05    
    741000        3272   0              305.58587      346.79126      37             1             -393454.45     -924.77337      125160.05    
    742000        3272   0              300.50077      336.48671      37             1             -393455.79     -147.20526      125160.05    
    743000        3272   0              292.21169      326.74829      37             1             -393458.44     -249.72319      125160.05    
    744000        3272   0              302.08853      328.43086      37             1             -393461.36     -714.74612      125160.05    
    745000        3272   0              294.28254      332.73966      37             1             -393460.75     -761.86929      125160.05    
    746000        3272   0              298.53944      327.21697      37             1             -393461.86     -713.92191      125160.05    
    747000        3272   0              302.28162      324.17158      37             1             -393464.49     -528.25288      125160.05    
    748000        3272   0              299.82681      306.63276      37             1             -393465.67     -1418.8721      125160.05    
    749000        3272   0              309.25677      313.07174      37             1             -393466.2      -704.90188      125160.05    
    750000        3272   0              298.31435      310.49244      37             1             -393466.95     -1393.1507      125160.05    
    751000        3273   0              302.2744       308.70984      38             1             -393540.83     -1134.0632      125160.05    
    752000        3273   0              314.38898      369.90811      38             1             -393554.35     -4340.9583      125160.05    
    753000        3273   0              298.27708      357.59212      38             1             -393565.59     -3345.3554      125160.05    
    754000        3273   0              301.26868      346.43552      38             1             -393568.13     -4173.7553      125160.05    
    755000        3273   0              303.89546      339.19108      38             1             -393569.85     -4517.8021      125160.05    
    756000        3273   0              303.92346      330.87069      38             1             -393573.41     -3754.257       125160.05    
    757000        3273   0              296.80796      322.97619      38             1             -393577.05     -4061.1871      125160.05    
    758000        3273   0              292.98422      323.47437      38             1             -393576.65     -3946.8069      125160.05    
    759000        3273   0              296.51367      317.8834       38             1             -393576.6      -3993.8547      125160.05    
    760000        3273   0              296.80806      320.81655      38             1             -393578.99     -3464.7751      125160.05    
    761000        3273   0              298.96856      322.0797       38             1             -393579.05     -3512.0015      125160.05    
    762000        3273   0              299.73109      316.61104      38             1             -393581.76     -3040.9355      125160.05    
    763000        3273   0              290.54517      311.04191      38             1             -393582.12     -2098.3718      125160.05    
    764000        3273   0              304.6284       311.61079      38             1             -393583.15     -1394.9983      125160.05    
    765000        3273   0              298.61616      309.34206      38             1             -393585.05     -874.83847      125160.05    
    766000        3273   0              304.82679      302.22491      38             1             -393587.31     -816.11947      125160.05    
    767000        3273   0              299.28216      302.55436      38             1             -393588.48     -414.02714      125160.05    
    768000        3273   0              297.33115      300.44266      38             1             -393587.53     -223.9631       125160.05    
    769000        3273   0              308.45776      310.79075      38             1             -393587.8       351.68566      125160.05    
    770000        3273   0              301.72974      305.65427      38             1             -393588.5       896.25317      125160.05    
    771000        3274   0              302.52284      307.00217      39             1             -393661.63      1467.9008      125160.05    
    772000        3274   0              307.99179      411.34189      39             1             -393662.39     -167.08074      125160.05    
    773000        3274   0              298.42194      388.31306      39             1             -393670.64     -473.12856      125160.05    
    774000        3274   0              301.47236      367.08385      39             1             -393676.97      17.508558      125160.05    
    775000        3274   0              303.49998      366.89298      39             1             -393680.78     -31.564713      125160.05    
    776000        3274   0              307.31841      354.22416      39             1             -393685.19     -310.75195      125160.05    
    777000        3274   0              296.00373      356.92395      39             1             -393688.27      231.23077      125160.05    
    778000        3274   0              308.98967      343.61418      39             1             -393690.55     -817.76651      125160.05    
    779000        3274   0              306.33367      340.81563      39             1             -393693.01     -527.66309      125160.05    
    780000        3274   0              306.47434      329.21109      39             1             -393695.17     -1295.9906      125160.05    
    781000        3274   0              296.79367      325.2859       39             1             -393699.27     -1583.2419      125160.05    
    782000        3274   0              298.30131      318.78731      39             1             -393699.18     -1654.6391      125160.05    
    783000        3274   0              303.74945      324.17985      39             1             -393700.64     -2247.5414      125160.05    
    784000        3274   0              299.89629      331.31173      39             1             -393701.96     -2220.9388      125160.05    
    785000        3274   0              299.44         323.63938      39             1             -393703.27     -2920.3637      125160.05    
    786000        3274   0              303.99938      314.29482      39             1             -393703.66     -3243.431       125160.05    
    787000        3274   0              303.64071      314.71329      39             1             -393704.11     -2982.1908      125160.05    
    788000        3274   0              297.47972      307.07568      39             1             -393705.77     -2449.4014      125160.05    
    789000        3274   0              303.32594      321.75485      39             1             -393706.01     -3002.6011      125160.05    
    790000        3274   0              291.40598      305.60253      39             1             -393705.79     -4001.8653      125160.05    
    791000        3275   0              295.12908      314.44309      40             1             -393780.43     -2580.8838      125160.05    
    792000        3275   0              298.71417      405.14091      40             1             -393781.9      -3902.8827      125160.05    
    793000        3275   0              305.88832      390.60296      40             1             -393787.13     -3026.4103      125160.05    
    794000        3275   0              302.34021      391.43597      40             1             -393792.08     -3105.8736      125160.05    
    795000        3275   0              296.93684      362.59827      40             1             -393796.81     -2671.9212      125160.05    
    796000        3275   0              307.27948      373.7553       40             1             -393800.56     -2306.4733      125160.05    
    797000        3275   0              303.83181      361.65067      40             1             -393805.08     -1818.6418      125160.05    
    798000        3275   0              302.44822      349.66312      40             1             -393808.79     -1442.5228      125160.05    
    799000        3275   0              295.61999      340.81276      40             1             -393811.83     -1321.4236      125160.05    
    800000        3275   0              304.07871      327.91515      40             1             -393814.95     -908.98558      125160.05    
    801000        3275   0              297.6646       336.75119      40             1             -393816.37     -658.90699      125160.05    
    802000        3275   0              305.40974      341.69646      40             1             -393816.69     -517.54526      125160.05    
    803000        3275   0              300.5359       334.87308      40             1             -393817.68      315.22472      125160.05    
    804000        3275   0              307.59684      330.53175      40             1             -393819.61      235.96289      125160.05    
    805000        3275   0              308.88682      319.55907      40             1             -393820.6       240.72896      125160.05    
    806000        3275   0              302.66506      313.37437      40             1             -393822.97      659.80177      125160.05    
    807000        3275   0              315.89614      309.42013      40             1             -393823         611.33322      125160.05    
    808000        3275   0              305.15928      310.34479      40             1             -393825.29      414.65054      125160.05    
    809000        3275   0              299.43652      302.4166       40             1             -393827.7       469.65448      125160.05    
    810000        3275   0              301.54278      297.24802      40             1             -393828.93     -227.5867       125160.05    
    811000        3276   0              303.32109      311.55089      41             1             -393902.3      -74.323521      125160.05    
    812000        3276   0              307.95283      390.70964      41             1             -393906.73     -2565.7971      125160.05    
    813000        3276   0              297.45043      383.85862      41             1             -393913.01     -2780.4216      125160.05    
    814000        3276   0              309.678        370.569        41             1             -393918.77     -3485.5473      125160.05    
    815000        3276   0              305.8802       372.30429      41             1             -393923.84     -3091.8178      125160.05    
    816000        3276   0              303.2831       358.04844      41             1             -393926.02     -3191.8243      125160.05    
    817000        3276   0              309.71637      354.20751      41             1             -393930.44     -2756.677       125160.05    
    818000        3276   0              297.29001      340.81646      41             1             -393935.39     -2500.6291      125160.05    
    819000        3276   0              308.30669      342.79534      41             1             -393938.13     -2046.5132      125160.05    
    820000        3276   0              292.61642      334.4117       41             1             -393939.35     -2097.1661      125160.05    
    821000        3276   0              294.75499      326.32584      41             1             -393942.05     -820.57577      125160.05    
    822000        3276   0              299.12434      324.97043      41             1             -393943.72     -1674.7022      125160.05    
    823000        3276   0              304.29352      336.77321      41             1             -393943.57     -886.80956      125160.05    
    824000        3276   0              298.13283      323.87345      41             1             -393944.37     -297.87974      125160.05    
    825000        3276   0              301.33375      329.02324      41             1             -393945.46     -543.53326      125160.05    
    826000        3276   0              305.21876      319.67489      41             1             -393948.09     -642.95639      125160.05    
    827000        3276   0              290.85934      316.63074      41             1             -393947.42     -441.54897      125160.05    
    828000        3276   0              302.67455      318.64169      41             1             -393949.76     -249.12219      125160.05    
    829000        3276   0              301.43824      312.95965      41             1             -393949.57     -748.32346      125160.05    
    830000        3276   0              304.34183      317.57557      41             1             -393950.22     -536.51659      125160.05    
    831000        3277   0              296.53363      308.3928       42             1             -394024.83      224.87499      125160.05    
    832000        3277   0              310.61544      394.71312      42             1             -394026.93     -2806.218       125160.05    
    833000        3277   0              307.41494      371.87348      42             1             -394034.52     -2616.6572      125160.05    
    834000        3277   0              299.7014       370.63857      42             1             -394039.89     -2260.5266      125160.05    
    835000        3277   0              305.33518      353.99164      42             1             -394044.21     -2521.2038      125160.05    
    836000        3277   0              301.10504      348.12721      42             1             -394048.97     -2804.0377      125160.05    
    837000        3277   0              299.81963      331.00098      42             1             -394052.11     -2433.0374      125160.05    
    838000        3277   0              296.05318      342.42488      42             1             -394053.32     -3001.2572      125160.05    
    839000        3277   0              295.8875       342.24336      42             1             -394054.64     -2521.182       125160.05    
    840000        3277   0              302.36929      346.54603      42             1             -394055.69     -1917.7762      125160.05    
    841000        3277   0              305.49125      340.81163      42             1             -394055.96     -2574.1646      125160.05    
    842000        3277   0              307.20805      337.86237      42             1             -394056.86     -2696.7028      125160.05    
    843000        3277   0              301.55302      332.99653      42             1             -394061.02     -2557.8718      125160.05    
    844000        3277   0              293.64731      324.49581      42             1             -394062.67     -2406.479       125160.05    
    845000        3277   0              304.2739       324.05914      42             1             -394064.15     -1884.947       125160.05    
    846000        3277   0              302.32462      322.05025      42             1             -394066.44     -1901.4841      125160.05    
    847000        3277   0              297.51185      323.01893      42             1             -394066.2      -1178.242       125160.05    
    848000        3277   0              290.88583      314.74077      42             1             -394068.38     -1026.6694      125160.05    
    849000        3277   0              296.03981      311.265        42             1             -394068.64     -1565.627       125160.05    
    850000        3277   0              292.03698      320.60432      42             1             -394069.16     -940.44046      125160.05    
    851000        3278   0              303.78286      321.43112      43             1             -394142.62     -915.43554      125160.05    
    852000        3278   0              294.43953      404.63599      43             1             -394142.68     -1656.8344      125160.05    
    853000        3278   0              311.14817      399.75461      43             1             -394147.87     -1655.1196      125160.05    
    854000        3278   0              295.93081      402.65413      43             1             -394154.08     -1812.7993      125160.05    
    855000        3278   0              306.58363      380.18747      43             1             -394159.85     -1578.8583      125160.05    
    856000        3278   0              311.9897       355.8519       43             1             -394166.79     -1857.0189      125160.05    
    857000        3278   0              304.90857      370.76729      43             1             -394169.27     -1827.4583      125160.05    
    858000        3278   0              293.19261      361.7359       43             1             -394173.39     -1414.9186      125160.05    
    859000        3278   0              302.86016      352.53527      43             1             -394176.16     -2144.728       125160.05    
    860000        3278   0              291.81777      344.47233      43             1             -394179.54     -1898.4895      125160.05    
    861000        3278   0              299.87508      351.1096       43             1             -394180.16     -2081.0635      125160.05    
    862000        3278   0              304.49681      331.69677      43             1             -394183.57     -2157.6791      125160.05    
    863000        3278   0              300.54507      326.58591      43             1             -394185.21     -2697.2373      125160.05    
    864000        3278   0              298.82394      325.55485      43             1             -394187.61     -2034.8869      125160.05    
    865000        3278   0              297.99861      318.78748      43             1             -394188.57     -2152.3484      125160.05    
    866000        3278   0              298.88842      318.66892      43             1             -394190.14     -2290.4469      125160.05    
    867000        3278   0              307.99754      319.32863      43             1             -394191.17     -2147.3972      125160.05    
    868000        3278   0              300.25692      314.8545       43             1             -394192.5      -1634.8755      125160.05    
    869000        3278   0              301.80241      309.30668      43             1             -394193.76     -1943.0048      125160.05    
    870000        3278   0              292.16682      323.32761      43             1             -394195.41     -2252.7631      125160.05    
    871000        3279   0              297.45396      305.8519       44             1             -394269.24     -2371.3916      125160.05    
    872000        3279   0              310.13935      386.72746      44             1             -394271.25     -4119.3674      125160.05    
    873000        3279   0              305.21806      373.17343      44             1             -394281.74     -3446.8838      125160.05    
    874000        3279   0              300.71589      371.87522      44             1             -394287.58     -3300.4594      125160.05    
    875000        3279   0              298.65634      368.45079      44             1             -394291.13     -3357.5136      125160.05    
    876000        3279   0              301.73198      349.98085      44             1             -394295.11     -3030.7734      125160.05    
    877000        3279   0              295.82098      352.22478      44             1             -394296.42     -2457.9147      125160.05    
    878000        3279   0              302.71354      349.8021       44             1             -394299.16     -1567.5952      125160.05    
    879000        3279   0              299.79327      341.80668      44             1             -394301.42     -948.13749      125160.05    
    880000        3279   0              306.41711      333.73048      44             1             -394302.82     -869.1454       125160.05    
    881000        3279   0              293.18141      334.69081      44             1             -394304.98     -1111.9657      125160.05    
    882000        3279   0              299.22731      331.37739      44             1             -394305.51     -439.63595      125160.05    
    883000        3279   0              298.55591      321.15527      44             1             -394310.38     -691.15409      125160.05    
    884000        3279   0              306.01798      327.93158      44             1             -394310.95      37.227076      125160.05    
    885000        3279   0              293.34241      316.86304      44             1             -394311.33     -707.37156      125160.05    
    886000        3279   0              297.12759      331.37952      44             1             -394313.38     -1460.5083      125160.05    
    887000        3279   0              300.60134      310.01462      44             1             -394314.72     -1942.1654      125160.05    
    888000        3279   0              306.09062      308.65734      44             1             -394317.77     -1975.6994      125160.05    
    889000        3279   0              301.81333      305.66948      44             1             -394318.66     -2285.1184      125160.05    
    890000        3279   0              299.83302      308.06172      44             1             -394319.59     -2959.0225      125160.05    
    891000        3280   0              301.81432      308.39052      45             1             -394392.89     -2642.3579      125160.05    
    892000        3280   0              302.37342      380.94197      45             1             -394395.23     -4777.5042      125160.05    
    893000        3280   0              305.70157      367.67999      45             1             -394402.27     -3986.5949      125160.05    
    894000        3280   0              299.63499      364.02532      45             1             -394406.47     -4352.9597      125160.05    
    895000        3280   0              295.1482       351.77758      45             1             -394411.1      -3590.4168      125160.05    
    896000        3280   0              295.94048      346.38235      45             1             -394416.27     -3750.4201      125160.05    
    897000        3280   0              299.63148      344.22151      45             1             -394418.74     -2193.6343      125160.05    
    898000        3280   0              301.09715      357.606        45             1             -394418.47     -1761.8825      125160.05    
    899000        3280   0              294.57144      328.70378      45             1             -394419.56     -1237.5396      125160.05    
    900000        3280   0              293.85587      344.72698      45             1             -394421.8      -879.97907      125160.05    
    901000        3280   0              307.81817      340.2949       45             1             -394422.82     -497.02451      125160.05    
    902000        3280   0              309.51819      321.27276      45             1             -394426.88     -271.69654      125160.05    
    903000        3280   0              294.78615      321.17255      45             1             -394428.19     -407.94287      125160.05    
    904000        3280   0              296.32927      320.17196      45             1             -394430.41      116.81483      125160.05    
    905000        3280   0              300.99498      333.73596      45             1             -394432.08     -890.93179      125160.05    
    906000        3280   0              306.42897      318.61156      45             1             -394429.99     -568.87313      125160.05    
    907000        3280   0              305.03364      318.14378      45             1             -394432.09     -1252.5459      125160.05    
    908000        3280   0              295.44633      303.35735      45             1             -394434.24     -1007.3591      125160.05    
    909000        3280   0              303.77996      312.07139      45             1             -394434.01     -1693.1577      125160.05    
    910000        3280   0              297.58415      310.20895      45             1             -394436.92     -2130.0865      125160.05    
    911000        3281   0              299.0858       298.09004      46             1             -394511.88     -2204.4136      125160.05    
    912000        3281   0              295.49221      368.99923      46             1             -394513.72     -3983.3747      125160.05    
    913000        3281   0              307.76336      396.62958      46             1             -394517.19     -4021.6725      125160.05    
    914000        3281   0              301.90034      368.11805      46             1             -394520.33     -3273.6115      125160.05    
    915000        3281   0              303.37007      375.11068      46             1             -394525.24     -2720.247       125160.05    
    916000        3281   0              292.26402      360.96668      46             1             -394527.91     -2006.9784      125160.05    
    917000        3281   0              302.91578      357.38059      46             1             -394532.49     -1596.9826      125160.05    
    918000        3281   0              308.44202      363.62805      46             1             -394535.39     -1044.6605      125160.05    
    919000        3281   0              293.34179      349.95238      46             1             -394537.9      -906.31881      125160.05    
    920000        3281   0              305.40197      342.85689      46             1             -394539.92     -807.1948       125160.05    
    921000        3281   0              300.43523      335.07408      46             1             -394543.26     -1120.4507      125160.05    
    922000        3281   0              306.57253      320.56354      46             1             -394546.29     -1387.8982      125160.05    
    923000        3281   0              295.06934      331.27892      46             1             -394546.52     -374.4044       125160.05    
    924000        3281   0              311.97092      318.23091      46             1             -394548.75      79.629361      125160.05    
    925000        3281   0              297.43947      333.18199      46             1             -394548.98     -45.173836      125160.05    
    926000        3281   0              296.12935      324.1453       46             1             -394550.06     -980.87651      125160.05    
    927000        3281   0              295.13991      326.90215      46             1             -394551.11     -864.51919      125160.05    
    928000        3281   0              304.50464      321.70345      46             1             -394552.42     -1438.5368      125160.05    
    929000        3281   0              294.97415      321.95627      46             1             -394554.42     -2168.9734      125160.05    
    930000        3281   0              301.30568      324.48138      46             1             -394554.36     -1998.5461      125160.05    
    931000        3282   0              305.37265      318.95337      47             1             -394627.58     -1503.6976      125160.05    
    932000        3282   0              291.83548      399.22035      47             1             -394628.02     -3680.7956      125160.05    
    933000        3282   0              304.42661      379.80434      47             1             -394636.86     -4342.2638      125160.05    
    934000        3282   0              298.51166      369.13102      47             1             -394644.98     -3788.5297      125160.05    
    935000        3282   0              300.31682      371.73773      47             1             -394648.3      -4241.8368      125160.05    
    936000        3282   0              299.26589      361.35392      47             1             -394652.08     -3625.7378      125160.05    
    937000        3282   0              298.75359      356.90541      47             1             -394656.97     -3701.0908      125160.05    
    938000        3282   0              297.15284      352.28257      47             1             -394657.83     -2720.2675      125160.05    
    939000        3282   0              299.99104      333.72983      47             1             -394662.94     -1889.393       125160.05    
    940000        3282   0              292.60475      343.18177      47             1             -394664.21     -1471.7036      125160.05    
    941000        3282   0              298.18839      339.75449      47             1             -394666.58     -1262.5713      125160.05    
    942000        3282   0              300.81577      331.56499      47             1             -394668.81     -729.09268      125160.05    
    943000        3282   0              294.04602      337.84178      47             1             -394669.41     -676.13258      125160.05    
    944000        3282   0              301.27342      331.31906      47             1             -394671.59     -1001.1095      125160.05    
